LAMMPS (2 Jun 2022)


# ----------------- Init Section -----------------

include "benzene_02.in.init"
# Input variables.
variable run string benzene_02
variable ts     equal 2       # timestep
variable tf     equal 300.    # Equilibrium temperature
variable p      equal 1.      # Equilibrium pressure
variable cutoff equal 12.     # For interactions in real space.
variable skin   equal 4.      # Skin distance for neighbour list.
variable cl     equal 400     # correlation length
variable s      equal 5       # sample interval
variable prod   equal 5000000 # Production steps

# PBC
boundary p p p

# Force field setup.
units           real
atom_style      full
bond_style      harmonic
angle_style     harmonic
dihedral_style  harmonic
improper_style  harmonic
pair_style      lj/cut/coul/long ${cutoff}
pair_style      lj/cut/coul/long 12
special_bonds lj 0.0 0.0 0.5 coul 0.0 0.0 1.0 angle yes dihedral yes

# Neighbour list.
neighbor        ${skin} bin
neighbor        4 bin
neigh_modify    check yes

# Create a random seed.
shell dd if=/dev/urandom of=/tmp/random_number count=2 bs=1
shell od -An -t dI /tmp/random_number > /tmp/seed
variable s1 file /tmp/seed
variable s2 equal abs(v_s1)
print "Seed ${s2}"
Seed 52504
variable r1 equal random(10000,1000000,${s2})
variable r1 equal random(10000,1000000,52504)
variable r format r1 %.0f

# Create a random seed.
shell dd if=/dev/urandom of=/tmp/random_number count=2 bs=1
shell od -An -t dI /tmp/random_number > /tmp/seed
variable s1 file /tmp/seed
variable s2 equal abs(v_s1)
print "Seed ${s2}"
Seed 52504
variable r1 equal random(10000,1000000,${s2})
variable r1 equal random(10000,1000000,52504)
variable r format r1 %.0f


# ----------------- Atom Definition Section -----------------

read_data "benzene_02.data"
Reading data file ...
  orthogonal box = (0 0 0) to (51.826 51.826 51.826)
  3 by 3 by 3 MPI processor grid
  reading atoms ...
  12000 atoms
  scanning bonds ...
  3 = max bonds/atom
  scanning angles ...
  3 = max angles/atom
  scanning dihedrals ...
  6 = max dihedrals/atom
  scanning impropers ...
  2 = max impropers/atom
  reading bonds ...
  15000 bonds
  reading angles ...
  18000 angles
  reading dihedrals ...
  24000 dihedrals
  reading impropers ...
  6000 impropers
Finding 1-2 1-3 1-4 neighbors ...
  special bond factors lj:    0        0        0.5     
  special bond factors coul:  0        0        1       
     4 = max # of 1-2 neighbors
     9 = max # of 1-3 neighbors
    27 = max # of 1-4 neighbors
  48000 = # of 1-3 neighbors before angle trim
  36000 = # of 1-3 neighbors after angle trim
  66000 = # of 1-4 neighbors before dihedral trim
  42000 = # of 1-4 neighbors after dihedral trim
    10 = max # of special neighbors
  special bonds CPU = 0.003 seconds
  read_data CPU = 0.159 seconds

# ----------------- Settings Section -----------------

include "benzene_02.in.settings"
#     atom_id      mass
mass 1            15.999400000
mass 2           15.999400000
mass 3           15.999400000
mass 4           15.999400000
mass 5           15.999400000
mass 6            14.006700000
mass 7           14.006700000
mass 8           14.006700000
mass 9           14.006700000
mass 10           14.006700000
mass 11           14.006700000
mass 12            12.011000000
mass 13          12.011000000
mass 14          13.019000000
mass 15          14.027000000
mass 16          15.035000000
mass 17          16.043000000
mass 18         14.027000000
mass 19          12.011000000
mass 20            1.008000000
mass 21             1.008000000
mass 22           1.000000000
mass 23            32.060000000
mass 24         63.546000000
mass 25         63.546000000
mass 26           55.847000000
mass 27         65.370000000
mass 28         24.305000000
mass 29         40.080000000
mass 30           39.948000000
mass 31            18.998400000
mass 32           35.453000000
mass 33           79.904000000
mass 34         12.011000000
mass 35         15.999400000
mass 36          22.989800000
mass 37          35.453000000
mass 38         12.011000000
mass 39        35.453000000
mass 40          1.008000000
mass 41        32.060000000
mass 42        12.011000000
mass 43        15.999400000
mass 44         12.011000000
mass 45        35.453000000
mass 46         18.998400000
mass 47         12.011000000
mass 48        13.019000000
mass 49         15.999400000
mass 50        12.011000000
mass 51        15.999400000
mass 52        14.006700000
mass 53         15.035000000
mass 54            126.904470000
mass 55        35.453000000
mass 56            10.811000000
mass 57           78.960000000
mass 58          1.008000000
mass 59        35.453000000
mass 60        79.904000000
mass 61        15.999400000
mass 62         14.006700000
mass 63         12.011000000
mass 64         12.011000000
mass 65         14.006700000
mass 66         14.006700000
mass 67         15.999400000
mass 68           28.080000000
mass 69            30.973800000
mass 70          26.981540

#           atom_i       atom_j       epsilon                  sigma
pair_coeff 1      1      3.057142739336137782E-01 2.760065475311210825E+00
pair_coeff 1      2     3.550276087952778381E-01 2.692123523613648928E+00
pair_coeff 2     2     4.122954462841457168E-01 2.625854035428913935E+00
pair_coeff 1      3     2.204919358198741963E-01 2.914561468303898728E+00
pair_coeff 2     3     1.353372555548385814E-01 3.161567388722811067E+00
pair_coeff 3     3     2.030610329881481768E-01 2.954841833242532800E+00
pair_coeff 1      4     2.779220672123761116E-01 2.804259278747785356E+00
pair_coeff 2     4     3.227523716320707670E-01 2.735229449503375765E+00
pair_coeff 3     4     2.030610329881481768E-01 2.954841833242532800E+00
pair_coeff 4     4     2.526564247385237327E-01 2.849160707521389835E+00
pair_coeff 1      5     1.928839685607480758E-01 3.016736863519489109E+00
pair_coeff 2     5     1.183915722290306144E-01 3.272402037762298210E+00
pair_coeff 3     5     1.776356026680076250E-01 3.058429331874637391E+00
pair_coeff 4     5     1.776356026680076250E-01 3.058429331874637391E+00
pair_coeff 5     5     1.553937103090970162E-01 3.165648283720967182E+00
pair_coeff 1      6      1.694765154967038112E-01 3.064144913095461664E+00
pair_coeff 2     6      9.205677104655286824E-02 3.392227199027124662E+00
pair_coeff 3     6      1.381226695164660401E-01 3.170419479686534814E+00
pair_coeff 4     6      1.381226695164660401E-01 3.170419479686534814E+00
pair_coeff 5     6      1.208282223360083590E-01 3.281564455306036798E+00
pair_coeff 6      6      1.529146624006174071E-01 3.136473222385702364E+00
pair_coeff 1      7     1.295153862773237297E-01 3.204601223054668324E+00
pair_coeff 2     7     7.949613606375653674E-02 3.476187697824344891E+00
pair_coeff 3     7     1.192765986091082336E-01 3.248890049401691016E+00
pair_coeff 4     7     1.192765986091082336E-01 3.248890049401691016E+00
pair_coeff 5     7     1.043418826661619003E-01 3.362785957386363656E+00
pair_coeff 6      7     8.113226830524199185E-02 3.485920696025768706E+00
pair_coeff 7     7     7.006222102981565780E-02 3.572200188298519929E+00
pair_coeff 1      8     9.498357859321329699E-02 3.374577969603924643E+00
pair_coeff 2     8     3.498417334104661491E-02 3.985801065571819457E+00
pair_coeff 3     8     8.747468933197311003E-02 3.421215940224123120E+00
pair_coeff 4     8     8.747468933197311003E-02 3.421215940224123120E+00
pair_coeff 5     8     7.652191525386708992E-02 3.541153054130216749E+00
pair_coeff 6      8     1.529146624006174071E-01 3.136473222385702364E+00
pair_coeff 7     8     5.138200694820247577E-02 3.761674922833770918E+00
pair_coeff 8     8     1.529146624006174071E-01 3.136473222385702364E+00
pair_coeff 1      9     1.582887664986303011E-01 3.099220950402574282E+00
pair_coeff 2     9     9.715714619416199183E-02 3.361876561464794300E+00
pair_coeff 3     9     1.457753106303604218E-01 3.142053380689358466E+00
pair_coeff 4     9     1.457753106303604218E-01 3.142053380689358466E+00
pair_coeff 5     9     1.275226702872701012E-01 3.252203929734818200E+00
pair_coeff 6      9     9.915676463161025855E-02 3.371289499249087385E+00
pair_coeff 7     9     8.562737496854166963E-02 3.454731772227725983E+00
pair_coeff 8     9     6.279712962164887835E-02 3.637975809775669589E+00
pair_coeff 9     9     1.046505125905587974E-01 3.341126193637144581E+00
pair_coeff 1      10     1.356655582513865699E-01 3.179918240687398701E+00
pair_coeff 2     10     4.996808371058240883E-02 3.755883439744826191E+00
pair_coeff 3     10     1.249405711687586185E-01 3.223865938686866883E+00
pair_coeff 4     10     1.249405711687586185E-01 3.223865938686866883E+00
pair_coeff 5     10     1.092966648039405131E-01 3.336884579737899870E+00
pair_coeff 6      10     1.529146624006174071E-01 3.136473222385702364E+00
pair_coeff 7     10     7.338919800609181032E-02 3.544685827501989461E+00
pair_coeff 8     10     1.529146624006174071E-01 3.136473222385702364E+00
pair_coeff 9     10     8.969347936648916497E-02 3.428122195097171421E+00
pair_coeff 10     10     1.529146624006174071E-01 3.136473222385702364E+00
pair_coeff 1      11     1.468798483487794293E-01 3.138102939733744545E+00
pair_coeff 2     11     5.409850998504587422E-02 3.706494309430008460E+00
pair_coeff 3     11     1.352683199952084137E-01 3.181472734127216206E+00
pair_coeff 4     11     1.352683199952084137E-01 3.181472734127216206E+00
pair_coeff 5     11     1.183312681445888304E-01 3.293005202223091565E+00
pair_coeff 6      11     1.529146624006174071E-01 3.136473222385702364E+00
pair_coeff 7     11     7.945564380901472268E-02 3.498073904350435193E+00
pair_coeff 8     11     1.529146624006174071E-01 3.136473222385702364E+00
pair_coeff 9     11     9.710765810444493829E-02 3.383043060841536942E+00
pair_coeff 10     11     1.529146624006174071E-01 3.136473222385702364E+00
pair_coeff 11     11     1.529146624006174071E-01 3.136473222385702364E+00
pair_coeff 1      12      1.423703976828447626E-01 3.143928959384971744E+00
pair_coeff 2     12      1.653354984123153737E-01 3.066537799135407028E+00
pair_coeff 3     12      1.294276342571315797E-01 3.194269134171567437E+00
pair_coeff 4     12      1.294276342571315797E-01 3.194269134171567437E+00
pair_coeff 5     12      1.015029251390483361E-01 3.367009660356621747E+00
pair_coeff 6      12      1.006900148654086141E-01 3.351458328501519368E+00
pair_coeff 7     12      1.006900148654086141E-01 3.351458328501519368E+00
pair_coeff 8     12      1.006900148654086141E-01 3.351458328501519368E+00
pair_coeff 9     12      1.006900148654086141E-01 3.351458328501519368E+00
pair_coeff 10     12      1.006900148654086141E-01 3.351458328501519368E+00
pair_coeff 11     12      1.006900148654086141E-01 3.351458328501519368E+00
pair_coeff 12      12      6.630154972997068241E-02 3.581179283634555510E+00
pair_coeff 1      13    2.260833879260638890E-02 4.280821861878790990E+00
pair_coeff 2     13    2.625518382604388745E-02 4.175444871815595427E+00
pair_coeff 3     13    2.055303526600580841E-02 4.349365815492619802E+00
pair_coeff 4     13    2.055303526600580841E-02 4.349365815492619802E+00
pair_coeff 5     13    1.611860721985387823E-02 4.584571963747981371E+00
pair_coeff 6      13    1.598951752723829639E-02 4.563397031920107594E+00
pair_coeff 7     13    1.598951752723829639E-02 4.563397031920107594E+00
pair_coeff 8     13    1.598951752723829639E-02 4.563397031920107594E+00
pair_coeff 9     13    1.598951752723829639E-02 4.563397031920107594E+00
pair_coeff 10     13    1.598951752723829639E-02 4.563397031920107594E+00
pair_coeff 11     13    1.598951752723829639E-02 4.563397031920107594E+00
pair_coeff 12      13    1.052864867392752299E-02 4.876188605638604123E+00
pair_coeff 13    13    1.671943466637953492E-03 6.639493148644640463E+00
pair_coeff 1      14    8.326657659937299061E-02 3.721998163273249283E+00
pair_coeff 2     14    9.669791731433396986E-02 3.630377213810442427E+00
pair_coeff 3     14    7.569688781761180207E-02 3.781594305716371451E+00
pair_coeff 4     14    7.569688781761180207E-02 3.781594305716371451E+00
pair_coeff 5     14    5.936487660854102705E-02 3.986096356968000354E+00
pair_coeff 6      14    5.888943890049144064E-02 3.967685626525647269E+00
pair_coeff 7     14    5.888943890049144064E-02 3.967685626525647269E+00
pair_coeff 8     14    5.888943890049144064E-02 3.967685626525647269E+00
pair_coeff 9     14    5.888943890049144064E-02 3.967685626525647269E+00
pair_coeff 10     14    5.888943890049144064E-02 3.967685626525647269E+00
pair_coeff 11     14    5.888943890049144064E-02 3.967685626525647269E+00
pair_coeff 12      14    3.877704325548127218E-02 4.239645007324696735E+00
pair_coeff 13    14    6.157772581688245907E-03 5.772765628111153013E+00
pair_coeff 14    14    2.267909407489697785E-02 5.019181773522026546E+00
pair_coeff 1      15    1.731972553779473067E-01 3.351793382524915543E+00
pair_coeff 2     15    2.011348918568659772E-01 3.269285418082499728E+00
pair_coeff 3     15    1.574520503435884455E-01 3.405461854969619839E+00
pair_coeff 4     15    1.574520503435884455E-01 3.405461854969619839E+00
pair_coeff 5     15    1.234809225305322361E-01 3.589623316644059425E+00
pair_coeff 6      15    1.224919962470180784E-01 3.573043790873992709E+00
pair_coeff 7     15    1.224919962470180784E-01 3.573043790873992709E+00
pair_coeff 8     15    1.224919962470180784E-01 3.573043790873992709E+00
pair_coeff 9     15    1.224919962470180784E-01 3.573043790873992709E+00
pair_coeff 10     15    1.224919962470180784E-01 3.573043790873992709E+00
pair_coeff 11     15    1.224919962470180784E-01 3.573043790873992709E+00
pair_coeff 12      15    8.065754277175206377E-02 3.817953007077415251E+00
pair_coeff 13    15    1.280837226587758920E-02 5.198583336794016851E+00
pair_coeff 14    15    4.717327178141728083E-02 4.519953937695086132E+00
pair_coeff 15    15    9.812197803026967424E-02 4.070381293353582564E+00
pair_coeff 1      16    2.517150719017874350E-01 3.216286733597559344E+00
pair_coeff 2     16    2.923180488930291476E-01 3.137114409660223480E+00
pair_coeff 3     16    2.288318835470794788E-01 3.267785491497223305E+00
pair_coeff 4     16    2.288318835470794788E-01 3.267785491497223305E+00
pair_coeff 5     16    1.794601723072659361E-01 3.444501654585188533E+00
pair_coeff 6      16    1.780229229119614787E-01 3.428592407594721170E+00
pair_coeff 7     16    1.780229229119614787E-01 3.428592407594721170E+00
pair_coeff 8     16    1.780229229119614787E-01 3.428592407594721170E+00
pair_coeff 9     16    1.780229229119614787E-01 3.428592407594721170E+00
pair_coeff 10     16    1.780229229119614787E-01 3.428592407594721170E+00
pair_coeff 11     16    1.780229229119614787E-01 3.428592407594721170E+00
pair_coeff 12      16    1.172230999498745652E-01 3.663600408719620116E+00
pair_coeff 13    16    1.861496210673063006E-02 4.988414472922134912E+00
pair_coeff 14    16    6.855895881485152277E-02 4.337220773235620719E+00
pair_coeff 15    16    1.426049200441300291E-01 3.905823498176049124E+00
pair_coeff 16    16    2.072539060975635561E-01 3.747918462531858008E+00
pair_coeff 1      17    3.038575184606040480E-01 3.199953592715625295E+00
pair_coeff 2     17    3.528713488103634721E-01 3.121183326439165739E+00
pair_coeff 3     17    2.762341076914582305E-01 3.251190826523163935E+00
pair_coeff 4     17    2.762341076914582305E-01 3.251190826523163935E+00
pair_coeff 5     17    2.166351113098009262E-01 3.427009578955020341E+00
pair_coeff 6      17    2.149001375898457467E-01 3.411181123260212722E+00
pair_coeff 7     17    2.149001375898457467E-01 3.411181123260212722E+00
pair_coeff 8     17    2.149001375898457467E-01 3.411181123260212722E+00
pair_coeff 9     17    2.149001375898457467E-01 3.411181123260212722E+00
pair_coeff 10     17    2.149001375898457467E-01 3.411181123260212722E+00
pair_coeff 11     17    2.149001375898457467E-01 3.411181123260212722E+00
pair_coeff 12      17    1.415057111515590771E-01 3.644995692608442361E+00
pair_coeff 13    17    2.247102705950117241E-02 4.963082006288297876E+00
pair_coeff 14    17    8.276085709262456791E-02 4.315195237643504100E+00
pair_coeff 15    17    1.721453419435647891E-01 3.885988710192354478E+00
pair_coeff 16    17    2.501862805523388245E-01 3.728885557404626905E+00
pair_coeff 17    17    3.020120399909287934E-01 3.709949306321822071E+00
pair_coeff 1      18   1.871351497334000635E-01 3.303836737441132154E+00
pair_coeff 2     18   2.173210425425619319E-01 3.222509276900889397E+00
pair_coeff 3     18   1.701228633940000401E-01 3.356737334425898833E+00
pair_coeff 4     18   1.701228633940000401E-01 3.356737334425898833E+00
pair_coeff 5     18   1.334179394271841901E-01 3.538263858666045536E+00
pair_coeff 6      18   1.323494301847202848E-01 3.521921548721142159E+00
pair_coeff 7     18   1.323494301847202848E-01 3.521921548721142159E+00
pair_coeff 8     18   1.323494301847202848E-01 3.521921548721142159E+00
pair_coeff 9     18   1.323494301847202848E-01 3.521921548721142159E+00
pair_coeff 10     18   1.323494301847202848E-01 3.521921548721142159E+00
pair_coeff 11     18   1.323494301847202848E-01 3.521921548721142159E+00
pair_coeff 12      18   8.714838644978782634E-02 3.763326663382849269E+00
pair_coeff 13    18   1.383911457826323375E-02 5.124203269895830637E+00
pair_coeff 14    18   5.096949867344095775E-02 4.455283535302380749E+00
pair_coeff 15    18   1.060182565293115581E-01 4.012143267090165999E+00
pair_coeff 16    18   1.540809235512614617E-01 3.849939924851243589E+00
pair_coeff 17    18   1.859985845053877540E-01 3.830388928193292131E+00
pair_coeff 18   18   1.145499809843573136E-01 3.954738496352121491E+00
pair_coeff 1      19    1.916455257379301724E-01 3.213399033460031529E+00
pair_coeff 2     19    2.225589661339335279E-01 3.134297793337560201E+00
pair_coeff 3     19    1.742232052163001366E-01 3.264851553886924496E+00
pair_coeff 4     19    1.742232052163001366E-01 3.264851553886924496E+00
pair_coeff 5     19    1.366336104191038237E-01 3.441409054725308003E+00
pair_coeff 6      19    1.355393477120732659E-01 3.425514091640016634E+00
pair_coeff 7     19    1.355393477120732659E-01 3.425514091640016634E+00
pair_coeff 8     19    1.355393477120732659E-01 3.425514091640016634E+00
pair_coeff 9     19    1.355393477120732659E-01 3.425514091640016634E+00
pair_coeff 10     19    1.355393477120732659E-01 3.425514091640016634E+00
pair_coeff 11     19    1.355393477120732659E-01 3.425514091640016634E+00
pair_coeff 12      19    8.924885764206048899E-02 3.660311093966183371E+00
pair_coeff 13    19    1.417266821800791839E-02 4.983935691534572499E+00
pair_coeff 14    19    5.219797768503835894E-02 4.333326657424202644E+00
pair_coeff 15    19    1.085735338300921060E-01 3.902316706653073286E+00
pair_coeff 16    19    1.577946187139902257E-01 3.744553443938634096E+00
pair_coeff 17    19    1.904815667437584348E-01 3.725537627251366946E+00
pair_coeff 18   19    1.173108919424925706E-01 3.846483307649072980E+00
pair_coeff 19    19    1.201383470349284138E-01 3.741191446582464053E+00
pair_coeff 1      20     9.300420140216696108E-02 2.559445618447809156E+00
pair_coeff 2     20     1.080062726770026210E-01 2.496442138227286112E+00
pair_coeff 3     20     8.454927400196994569E-02 2.600427123263571172E+00
pair_coeff 4     20     8.454927400196994569E-02 2.600427123263571172E+00
pair_coeff 5     20     6.630731279946860957E-02 2.741053705029336207E+00
pair_coeff 6      20     6.577627494299018163E-02 2.728393499060382865E+00
pair_coeff 7     20     6.577627494299018163E-02 2.728393499060382865E+00
pair_coeff 8     20     6.577627494299018163E-02 2.728393499060382865E+00
pair_coeff 9     20     6.577627494299018163E-02 2.728393499060382865E+00
pair_coeff 10     20     6.577627494299018163E-02 2.728393499060382865E+00
pair_coeff 11     20     6.577627494299018163E-02 2.728393499060382865E+00
pair_coeff 12      20     4.331183156556572822E-02 2.915407359639444529E+00
pair_coeff 13    20     6.877894405717501110E-03 3.969663348839890027E+00
pair_coeff 14    20     2.533130481764387168E-02 3.451458661424102736E+00
pair_coeff 15    20     5.268995854924014149E-02 3.108162818448523712E+00
pair_coeff 16    20     7.657659860592054557E-02 2.982505691119483604E+00
pair_coeff 17    20     9.243934043658488808E-02 2.967359751198966222E+00
pair_coeff 18   20     5.693013587912872792E-02 3.063691980262590153E+00
pair_coeff 19    20     5.830227959007599353E-02 2.979827888172235539E+00
pair_coeff 20     20     2.829367882355780447E-02 2.373408142809749322E+00
pair_coeff 1      21      0.000000000000000000E+00 0.000000000000000000E+00
pair_coeff 2     21      0.000000000000000000E+00 0.000000000000000000E+00
pair_coeff 3     21      0.000000000000000000E+00 0.000000000000000000E+00
pair_coeff 4     21      0.000000000000000000E+00 0.000000000000000000E+00
pair_coeff 5     21      0.000000000000000000E+00 0.000000000000000000E+00
pair_coeff 6      21      0.000000000000000000E+00 0.000000000000000000E+00
pair_coeff 7     21      0.000000000000000000E+00 0.000000000000000000E+00
pair_coeff 8     21      0.000000000000000000E+00 0.000000000000000000E+00
pair_coeff 9     21      0.000000000000000000E+00 0.000000000000000000E+00
pair_coeff 10     21      0.000000000000000000E+00 0.000000000000000000E+00
pair_coeff 11     21      0.000000000000000000E+00 0.000000000000000000E+00
pair_coeff 12      21      0.000000000000000000E+00 0.000000000000000000E+00
pair_coeff 13    21      0.000000000000000000E+00 0.000000000000000000E+00
pair_coeff 14    21      0.000000000000000000E+00 0.000000000000000000E+00
pair_coeff 15    21      0.000000000000000000E+00 0.000000000000000000E+00
pair_coeff 16    21      0.000000000000000000E+00 0.000000000000000000E+00
pair_coeff 17    21      0.000000000000000000E+00 0.000000000000000000E+00
pair_coeff 18   21      0.000000000000000000E+00 0.000000000000000000E+00
pair_coeff 19    21      0.000000000000000000E+00 0.000000000000000000E+00
pair_coeff 20     21      0.000000000000000000E+00 0.000000000000000000E+00
pair_coeff 21      21      0.000000000000000000E+00 0.000000000000000000E+00
pair_coeff 1      22    0.000000000000000000E+00 0.000000000000000000E+00
pair_coeff 2     22    0.000000000000000000E+00 0.000000000000000000E+00
pair_coeff 3     22    0.000000000000000000E+00 0.000000000000000000E+00
pair_coeff 4     22    0.000000000000000000E+00 0.000000000000000000E+00
pair_coeff 5     22    0.000000000000000000E+00 0.000000000000000000E+00
pair_coeff 6      22    0.000000000000000000E+00 0.000000000000000000E+00
pair_coeff 7     22    0.000000000000000000E+00 0.000000000000000000E+00
pair_coeff 8     22    0.000000000000000000E+00 0.000000000000000000E+00
pair_coeff 9     22    0.000000000000000000E+00 0.000000000000000000E+00
pair_coeff 10     22    0.000000000000000000E+00 0.000000000000000000E+00
pair_coeff 11     22    0.000000000000000000E+00 0.000000000000000000E+00
pair_coeff 12      22    0.000000000000000000E+00 0.000000000000000000E+00
pair_coeff 13    22    0.000000000000000000E+00 0.000000000000000000E+00
pair_coeff 14    22    0.000000000000000000E+00 0.000000000000000000E+00
pair_coeff 15    22    0.000000000000000000E+00 0.000000000000000000E+00
pair_coeff 16    22    0.000000000000000000E+00 0.000000000000000000E+00
pair_coeff 17    22    0.000000000000000000E+00 0.000000000000000000E+00
pair_coeff 18   22    0.000000000000000000E+00 0.000000000000000000E+00
pair_coeff 19    22    0.000000000000000000E+00 0.000000000000000000E+00
pair_coeff 20     22    0.000000000000000000E+00 0.000000000000000000E+00
pair_coeff 21      22    0.000000000000000000E+00 0.000000000000000000E+00
pair_coeff 22    22    0.000000000000000000E+00 0.000000000000000000E+00
pair_coeff 1      23      3.731714874568097806E-01 3.021498329079459921E+00
pair_coeff 2     23      4.333660288663451210E-01 2.947120929208018492E+00
pair_coeff 3     23      3.392468067789179420E-01 3.069878160802191225E+00
pair_coeff 4     23      3.392468067789179420E-01 3.069878160802191225E+00
pair_coeff 5     23      2.660524812168876263E-01 3.235891839220214727E+00
pair_coeff 6      23      2.639217367579247409E-01 3.220946106087509531E+00
pair_coeff 7     23      2.639217367579247409E-01 3.220946106087509531E+00
pair_coeff 8     23      2.639217367579247409E-01 3.220946106087509531E+00
pair_coeff 9     23      2.639217367579247409E-01 3.220946106087509531E+00
pair_coeff 10     23      2.639217367579247409E-01 3.220946106087509531E+00
pair_coeff 11     23      2.639217367579247409E-01 3.220946106087509531E+00
pair_coeff 12      23      1.737850588051431666E-01 3.441721286142719993E+00
pair_coeff 13    23      2.759696924716207450E-02 4.686300458613273712E+00
pair_coeff 14    23      1.016397168676915763E-01 4.074545090238809841E+00
pair_coeff 15    23      2.114139996840987690E-01 3.669274586167817986E+00
pair_coeff 16    23      3.072571214561132247E-01 3.520932774360979955E+00
pair_coeff 17    23      3.709050306349177539E-01 3.503052561617904459E+00
pair_coeff 18   23      2.284273523866607036E-01 3.616775497184223198E+00
pair_coeff 19    23      2.339329629063890137E-01 3.517771551839822930E+00
pair_coeff 20     23      1.135259918695059600E-01 2.801875799210098883E+00
pair_coeff 21      23      0.000000000000000000E+00 0.000000000000000000E+00
pair_coeff 22    23      0.000000000000000000E+00 0.000000000000000000E+00
pair_coeff 23      23      4.555134350088204109E-01 3.307694050845144673E+00
pair_coeff 1      24   2.223093289799977224E-01 2.528643669394098126E+00
pair_coeff 2     24   8.188055467646591923E-02 2.986646248124879222E+00
pair_coeff 3     24   2.047347528503646874E-01 2.563590501331129090E+00
pair_coeff 4     24   2.047347528503646874E-01 2.563590501331129090E+00
pair_coeff 5     24   1.790997547608397245E-01 2.653461953861128819E+00
pair_coeff 6      24   5.583840364210079787E-01 2.182297559899140094E+00
pair_coeff 7     24   5.583840364210079787E-01 2.182297559899140094E+00
pair_coeff 8     24   5.583840364210079787E-01 2.182297559899140094E+00
pair_coeff 9     24   1.469768559452463708E-01 2.726013321860754957E+00
pair_coeff 10     24   5.583840364210079787E-01 2.182297559899140094E+00
pair_coeff 11     24   5.583840364210079787E-01 2.182297559899140094E+00
pair_coeff 12      24   3.676802214070164498E-01 2.331880049283297840E+00
pair_coeff 13    24   5.838741162631456982E-02 3.175123618634094314E+00
pair_coeff 14    24   2.150410044373349261E-01 2.760639115110234521E+00
pair_coeff 15    24   4.472924585510560935E-01 2.486054939218036886E+00
pair_coeff 16    24   6.500695009260647472E-01 2.385548453460561547E+00
pair_coeff 17    24   7.847305442853571567E-01 2.373434017715752464E+00
pair_coeff 18   24   4.832879194471943474E-01 2.450485069368524726E+00
pair_coeff 19    24   4.949362401301840020E-01 2.383406620605556636E+00
pair_coeff 20     24   2.401890134458197767E-01 1.898363561004745348E+00
pair_coeff 21      24   0.000000000000000000E+00 0.000000000000000000E+00
pair_coeff 22    24   0.000000000000000000E+00 0.000000000000000000E+00
pair_coeff 23      24   9.637380899683938296E-01 2.241072162744267793E+00
pair_coeff 24   24   2.038998270244088307E+00 1.518400541713947227E+00
pair_coeff 1      25   1.222674138853568487E-01 2.793586526663335956E+00
pair_coeff 2     25   4.503330433195999044E-02 3.299577089353393333E+00
pair_coeff 3     25   1.126016118096603430E-01 2.832194971194489597E+00
pair_coeff 4     25   1.126016118096603430E-01 2.832194971194489597E+00
pair_coeff 5     25   9.850267617010251275E-02 2.931482855034457380E+00
pair_coeff 6      25   5.583840364210079787E-01 2.182297559899140094E+00
pair_coeff 7     25   5.583840364210079787E-01 2.182297559899140094E+00
pair_coeff 8     25   5.583840364210079787E-01 2.182297559899140094E+00
pair_coeff 9     25   8.083547442600935717E-02 3.011635913604119530E+00
pair_coeff 10     25   5.583840364210079787E-01 2.182297559899140094E+00
pair_coeff 11     25   5.583840364210079787E-01 2.182297559899140094E+00
pair_coeff 12      25   3.676802214070164498E-01 2.331880049283297840E+00
pair_coeff 13    25   5.838741162631456982E-02 3.175123618634094314E+00
pair_coeff 14    25   2.150410044373349261E-01 2.760639115110234521E+00
pair_coeff 15    25   4.472924585510560935E-01 2.486054939218036886E+00
pair_coeff 16    25   6.500695009260647472E-01 2.385548453460561547E+00
pair_coeff 17    25   7.847305442853571567E-01 2.373434017715752464E+00
pair_coeff 18   25   4.832879194471943474E-01 2.450485069368524726E+00
pair_coeff 19    25   4.949362401301840020E-01 2.383406620605556636E+00
pair_coeff 20     25   2.401890134458197767E-01 1.898363561004745348E+00
pair_coeff 21      25   0.000000000000000000E+00 0.000000000000000000E+00
pair_coeff 22    25   0.000000000000000000E+00 0.000000000000000000E+00
pair_coeff 23      25   9.637380899683938296E-01 2.241072162744267793E+00
pair_coeff 24   25   2.038998270244088307E+00 1.518400541713947227E+00
pair_coeff 25   25   2.038998270244088307E+00 1.518400541713947227E+00
pair_coeff 1      26     0.000000000000000000E+00 0.000000000000000000E+00
pair_coeff 2     26     0.000000000000000000E+00 0.000000000000000000E+00
pair_coeff 3     26     0.000000000000000000E+00 0.000000000000000000E+00
pair_coeff 4     26     0.000000000000000000E+00 0.000000000000000000E+00
pair_coeff 5     26     0.000000000000000000E+00 0.000000000000000000E+00
pair_coeff 6      26     0.000000000000000000E+00 0.000000000000000000E+00
pair_coeff 7     26     0.000000000000000000E+00 0.000000000000000000E+00
pair_coeff 8     26     0.000000000000000000E+00 0.000000000000000000E+00
pair_coeff 9     26     0.000000000000000000E+00 0.000000000000000000E+00
pair_coeff 10     26     0.000000000000000000E+00 0.000000000000000000E+00
pair_coeff 11     26     0.000000000000000000E+00 0.000000000000000000E+00
pair_coeff 12      26     0.000000000000000000E+00 0.000000000000000000E+00
pair_coeff 13    26     0.000000000000000000E+00 0.000000000000000000E+00
pair_coeff 14    26     0.000000000000000000E+00 0.000000000000000000E+00
pair_coeff 15    26     0.000000000000000000E+00 0.000000000000000000E+00
pair_coeff 16    26     0.000000000000000000E+00 0.000000000000000000E+00
pair_coeff 17    26     0.000000000000000000E+00 0.000000000000000000E+00
pair_coeff 18   26     0.000000000000000000E+00 0.000000000000000000E+00
pair_coeff 19    26     0.000000000000000000E+00 0.000000000000000000E+00
pair_coeff 20     26     0.000000000000000000E+00 0.000000000000000000E+00
pair_coeff 21      26     0.000000000000000000E+00 0.000000000000000000E+00
pair_coeff 22    26     0.000000000000000000E+00 0.000000000000000000E+00
pair_coeff 23      26     0.000000000000000000E+00 0.000000000000000000E+00
pair_coeff 24   26     0.000000000000000000E+00 0.000000000000000000E+00
pair_coeff 25   26     0.000000000000000000E+00 0.000000000000000000E+00
pair_coeff 26     26     0.000000000000000000E+00 0.000000000000000000E+00
pair_coeff 1      27   5.148167869545027253E-01 2.198391984374735042E+00
pair_coeff 2     27   1.896163524310913173E-01 2.596577466216851260E+00
pair_coeff 3     27   4.741181493550025716E-01 2.228774610499382636E+00
pair_coeff 4     27   4.741181493550025716E-01 2.228774610499382636E+00
pair_coeff 5     27   4.147534460805777923E-01 2.306908466707524141E+00
pair_coeff 6      27   4.114317946416216065E-01 2.296253463382908144E+00
pair_coeff 7     27   4.114317946416216065E-01 2.296253463382908144E+00
pair_coeff 8     27   4.114317946416216065E-01 2.296253463382908144E+00
pair_coeff 9     27   3.403642711782671748E-01 2.369984315549452436E+00
pair_coeff 10     27   4.114317946416216065E-01 2.296253463382908144E+00
pair_coeff 11     27   4.114317946416216065E-01 2.296253463382908144E+00
pair_coeff 12      27   2.709162932331031781E-01 2.453646898458591963E+00
pair_coeff 13    27   4.302135444964862165E-02 3.340923226938115054E+00
pair_coeff 14    27   1.584477717956855047E-01 2.904795040652100369E+00
pair_coeff 15    27   3.295766478763905716E-01 2.615872541507785698E+00
pair_coeff 16    27   4.789880153488779158E-01 2.510117776321816319E+00
pair_coeff 17    27   5.782097536577677221E-01 2.497370745143705939E+00
pair_coeff 18   27   3.560990341007065352E-01 2.578445272956105150E+00
pair_coeff 19    27   3.646818179386565606E-01 2.507864100562072096E+00
pair_coeff 20     27   1.769774750163259913E-01 1.997492909224773072E+00
pair_coeff 21      27   0.000000000000000000E+00 0.000000000000000000E+00
pair_coeff 22    27   0.000000000000000000E+00 0.000000000000000000E+00
pair_coeff 23      27   7.101071414248384395E-01 2.358097177009347067E+00
pair_coeff 24   27   1.502386642309327724E+00 1.597688860942628741E+00
pair_coeff 25   27   1.502386642309327724E+00 1.597688860942628741E+00
pair_coeff 26     27   0.000000000000000000E+00 0.000000000000000000E+00
pair_coeff 27   27   1.106997321149905122E+00 1.681117482676084629E+00
pair_coeff 1      28   1.337556733810085774E-01 2.357481108494590138E+00
pair_coeff 2     28   4.926463850082780926E-02 2.784481733402069281E+00
pair_coeff 3     28   1.231816714918823885E-01 2.390062407746226469E+00
pair_coeff 4     28   1.231816714918823885E-01 2.390062407746226469E+00
pair_coeff 5     28   1.077579983274792180E-01 2.473850508891853206E+00
pair_coeff 6      28   1.068949928152020112E-01 2.462424444192170547E+00
pair_coeff 7     28   1.068949928152020112E-01 2.462424444192170547E+00
pair_coeff 8     28   1.068949928152020112E-01 2.462424444192170547E+00
pair_coeff 9     28   8.843078438758973647E-02 2.541490912925349122E+00
pair_coeff 10     28   1.068949928152020112E-01 2.462424444192170547E+00
pair_coeff 11     28   1.068949928152020112E-01 2.462424444192170547E+00
pair_coeff 12      28   7.038735361689542336E-02 2.631207833337182223E+00
pair_coeff 13    28   1.117747202498341370E-02 3.582692917558796708E+00
pair_coeff 14    28   4.116666151782900213E-02 3.115003821456256539E+00
pair_coeff 15    28   8.562802842568927042E-02 2.805173118654866293E+00
pair_coeff 16    28   1.244469220077783211E-01 2.691765290191502125E+00
pair_coeff 17    28   1.502259384614757498E-01 2.678095805674920893E+00
pair_coeff 18   28   9.251886749504166507E-02 2.765037383453741171E+00
pair_coeff 19    28   9.474877930215237776E-02 2.689348524634663118E+00
pair_coeff 20     28   4.598090416614816073E-02 2.142043744391038285E+00
pair_coeff 21      28   0.000000000000000000E+00 0.000000000000000000E+00
pair_coeff 22    28   0.000000000000000000E+00 0.000000000000000000E+00
pair_coeff 23      28   1.844944867392919463E-01 2.528743548150760745E+00
pair_coeff 24   28   3.903383535907812840E-01 1.713307423651182493E+00
pair_coeff 25   28   3.903383535907812840E-01 1.713307423651182493E+00
pair_coeff 26     28   0.000000000000000000E+00 0.000000000000000000E+00
pair_coeff 27   28   2.876113908353647441E-01 1.802773452022052636E+00
pair_coeff 28   28   7.472494337414144205E-02 1.933233193281657103E+00
pair_coeff 1      29   1.703146428752259911E-01 2.843803441534021204E+00
pair_coeff 2     29   6.272996950749848422E-02 3.358889582531555007E+00
pair_coeff 3     29   1.568504861035088516E-01 2.883105903219756350E+00
pair_coeff 4     29   1.568504861035088516E-01 2.883105903219756350E+00
pair_coeff 5     29   1.372111144012202466E-01 2.984178564858046556E+00
pair_coeff 6      29   1.361122266164445094E-01 2.970395429120896935E+00
pair_coeff 7     29   1.361122266164445094E-01 2.970395429120896935E+00
pair_coeff 8     29   1.361122266164445094E-01 2.970395429120896935E+00
pair_coeff 9     29   1.126012608021971506E-01 3.065772437692955599E+00
pair_coeff 10     29   1.361122266164445094E-01 2.970395429120896935E+00
pair_coeff 11     29   1.361122266164445094E-01 2.970395429120896935E+00
pair_coeff 12      29   8.962608232733035307E-02 3.173996968575379718E+00
pair_coeff 13    29   1.423257128510838597E-02 4.321762924080988277E+00
pair_coeff 14    29   5.241860085293292143E-02 3.757594729361648955E+00
pair_coeff 15    29   1.090324373747397629E-01 3.383849372190097071E+00
pair_coeff 16    29   1.584615631091823018E-01 3.247046760402909182E+00
pair_coeff 17    29   1.912866677944946026E-01 3.230557412101377146E+00
pair_coeff 18   29   1.178067253398141917E-01 3.335434077797200025E+00
pair_coeff 19    29   1.206461311270324160E-01 3.244131442785662678E+00
pair_coeff 20     29   5.854870357409030363E-02 2.583923727009426852E+00
pair_coeff 21      29   0.000000000000000000E+00 0.000000000000000000E+00
pair_coeff 22    29   0.000000000000000000E+00 0.000000000000000000E+00
pair_coeff 23      29   2.349217182881164212E-01 3.050395432258705242E+00
pair_coeff 24   29   4.970281679412999476E-01 2.066743835286263042E+00
pair_coeff 25   29   4.970281679412999476E-01 2.066743835286263042E+00
pair_coeff 26     29   0.000000000000000000E+00 0.000000000000000000E+00
pair_coeff 27   29   3.662232044351344529E-01 2.174665717868782711E+00
pair_coeff 28   29   9.514925029300028148E-02 2.332037863859216742E+00
pair_coeff 29   29   1.211560614504652439E-01 2.813111536348800179E+00
pair_coeff 1      30     2.698242160009388657E-01 3.067797545829641592E+00
pair_coeff 2     30     3.133482940435941000E-01 2.992280441419951309E+00
pair_coeff 3     30     2.452947418190353224E-01 3.116918714488987607E+00
pair_coeff 4     30     2.452947418190353224E-01 3.116918714488987607E+00
pair_coeff 5     30     1.923710802470132430E-01 3.285476264338809127E+00
pair_coeff 6      30     1.908304307803131428E-01 3.270301513790756509E+00
pair_coeff 7     30     1.908304307803131428E-01 3.270301513790756509E+00
pair_coeff 8     30     1.908304307803131428E-01 3.270301513790756509E+00
pair_coeff 9     30     1.908304307803131428E-01 3.270301513790756509E+00
pair_coeff 10     30     1.908304307803131428E-01 3.270301513790756509E+00
pair_coeff 11     30     1.908304307803131428E-01 3.270301513790756509E+00
pair_coeff 12      30     1.256564845410435005E-01 3.494459690227617266E+00
pair_coeff 13    30     1.995417881967565324E-02 4.758109878000214898E+00
pair_coeff 14    30     7.349129780864194217E-02 4.136980420576664486E+00
pair_coeff 15    30     1.528643495920544437E-01 3.725499849556486165E+00
pair_coeff 16    30     2.221643793651205678E-01 3.574884956996347896E+00
pair_coeff 17    30     2.681854387748578428E-01 3.556730761031980492E+00
pair_coeff 18   30     1.651659715241092508E-01 3.672196303169541487E+00
pair_coeff 19    30     1.691468411565035523E-01 3.571675294227750541E+00
pair_coeff 20     30     8.208575087201354370E-02 2.844809681941795620E+00
pair_coeff 21      30     0.000000000000000000E+00 0.000000000000000000E+00
pair_coeff 22    30     0.000000000000000000E+00 0.000000000000000000E+00
pair_coeff 23      30     3.293621287006147091E-01 3.358378720212484847E+00
pair_coeff 24   30     6.968374682861073754E-01 2.275412703269175108E+00
pair_coeff 25   30     6.968374682861073754E-01 2.275412703269175108E+00
pair_coeff 26     30     0.000000000000000000E+00 0.000000000000000000E+00
pair_coeff 27   30     5.134478628509925313E-01 2.394230922729341682E+00
pair_coeff 28   30     1.334000102210023686E-01 2.567492153276457856E+00
pair_coeff 29   30     1.698617675500217472E-01 3.097137446951440776E+00
pair_coeff 30     30     2.381475572067369983E-01 3.409840044152281813E+00
pair_coeff 1      31      1.825200170718821457E-01 2.848641691863192271E+00
pair_coeff 2     31      2.119614644894694810E-01 2.778519342243783719E+00
pair_coeff 3     31      1.057395499456308119E-01 3.119966996841143647E+00
pair_coeff 4     31      1.659272882471655997E-01 2.894253765967063963E+00
pair_coeff 5     31      9.249981842420902656E-02 3.229343266454477224E+00
pair_coeff 6      31      7.192433081344887236E-02 3.347591749745056244E+00
pair_coeff 7     31      6.211065545356941192E-02 3.430447483334676306E+00
pair_coeff 8     31      4.555051328896060625E-02 3.612403446600987778E+00
pair_coeff 9     31      7.590927472598106573E-02 3.317640470558243848E+00
pair_coeff 10     31      6.506004412035899798E-02 3.404024952464428821E+00
pair_coeff 11     31      7.043799131579189798E-02 3.359262692221449242E+00
pair_coeff 12      31      8.499913033581890653E-02 3.244824150032262100E+00
pair_coeff 13    31      1.349781392048931411E-02 4.418202300006069727E+00
pair_coeff 14    31      4.971248737222838665E-02 3.841444791719262675E+00
pair_coeff 15    31      1.034036311148842646E-01 3.459359372949309286E+00
pair_coeff 16    31      1.502809752047785663E-01 3.319504035055336644E+00
pair_coeff 17    31      1.814114818495274339E-01 3.302646729860391872E+00
pair_coeff 18   31      1.117249459261637351E-01 3.409863699817805127E+00
pair_coeff 19    31      1.144177672156473091E-01 3.316523662640645131E+00
pair_coeff 20     31      5.552612316481649046E-02 2.641583528356301613E+00
pair_coeff 21      31      0.000000000000000000E+00 0.000000000000000000E+00
pair_coeff 22    31      0.000000000000000000E+00 0.000000000000000000E+00
pair_coeff 23      31      2.227938701879095817E-01 3.118464467275081642E+00
pair_coeff 24   31      1.066111026131294215E-01 2.706851401515291577E+00
pair_coeff 25   31      5.863480344158913254E-02 2.990466271099721407E+00
pair_coeff 26     31      0.000000000000000000E+00 0.000000000000000000E+00
pair_coeff 27   31      2.468865591596759723E-01 2.353325024008075417E+00
pair_coeff 28   31      6.414413594489304371E-02 2.523626052896363436E+00
pair_coeff 29   31      8.167642784672754508E-02 3.044222254215389167E+00
pair_coeff 30     31      1.610926433928725754E-01 3.166249521765611696E+00
pair_coeff 31      31      1.089695819670959825E-01 2.940060502624928240E+00
pair_coeff 1      32     3.028875918701723902E-01 3.094659625059138719E+00
pair_coeff 2     32     3.517449679133345941E-01 3.018481281955716966E+00
pair_coeff 3     32     2.468521531134249269E-01 3.201992541656678348E+00
pair_coeff 4     32     2.753523562456112184E-01 3.144210905779225573E+00
pair_coeff 5     32     2.159436024870309834E-01 3.314244369926244271E+00
pair_coeff 6      32     1.679095090878598429E-01 3.435601666955987898E+00
pair_coeff 7     32     1.449991894034274031E-01 3.520635720603371155E+00
pair_coeff 8     32     1.063390404686152813E-01 3.707375400182857383E+00
pair_coeff 9     32     1.772124802594848836E-01 3.404862953159864425E+00
pair_coeff 10     32     1.518846257717465786E-01 3.493518527740791413E+00
pair_coeff 11     32     1.644396049182014208E-01 3.447579444541888805E+00
pair_coeff 12      32     1.410540186851716171E-01 3.525057684932574986E+00
pair_coeff 13    32     2.239929855079176788E-02 4.799772576602748586E+00
pair_coeff 14    32     8.249668078937649751E-02 4.173204419770964790E+00
pair_coeff 15    32     1.715958464253498628E-01 3.758120865328633986E+00
pair_coeff 16    32     2.493876749186909880E-01 3.606187166974876845E+00
pair_coeff 17    32     3.010480042491057717E-01 3.587874010243685685E+00
pair_coeff 18   32     1.854048688263800759E-01 3.704350585376364968E+00
pair_coeff 19    32     1.898735411878733903E-01 3.602949399934630925E+00
pair_coeff 20     32     9.214426998795607893E-02 2.869719247168172060E+00
pair_coeff 21      32     0.000000000000000000E+00 0.000000000000000000E+00
pair_coeff 22    32     0.000000000000000000E+00 0.000000000000000000E+00
pair_coeff 23      32     3.697210854307304562E-01 3.387785170252723521E+00
pair_coeff 24   32     2.488868189752940496E-01 2.778015923822349631E+00
pair_coeff 25   32     1.368847085539993957E-01 3.069087174906648396E+00
pair_coeff 26     32     0.000000000000000000E+00 0.000000000000000000E+00
pair_coeff 27   32     5.763640826414281326E-01 2.415195155140145822E+00
pair_coeff 28   32     1.497464106452001675E-01 2.589973486093279487E+00
pair_coeff 29   32     1.906760723205734864E-01 3.124256430600719447E+00
pair_coeff 30     32     2.673293790349109966E-01 3.439697096991523484E+00
pair_coeff 31      32     1.808324084043584357E-01 3.193973660742658982E+00
pair_coeff 32     32     3.000870457518571288E-01 3.469815582505817453E+00
pair_coeff 1      33     4.619134934213758870E-01 3.174341374980300667E+00
pair_coeff 2     33     5.364225913614864005E-01 3.096201580725539859E+00
pair_coeff 3     33     3.764576148503470665E-01 3.284437915256962270E+00
pair_coeff 4     33     4.199213576557962457E-01 3.225168509344078061E+00
pair_coeff 5     33     3.293210632726623621E-01 3.399580020064839836E+00
pair_coeff 6      33     2.560674983169540231E-01 3.524062042578035125E+00
pair_coeff 7     33     2.211285107688185092E-01 3.611285565510714335E+00
pair_coeff 8     33     1.621705180019040737E-01 3.802833445749207453E+00
pair_coeff 9     33     2.702548339108319375E-01 3.492531863870627973E+00
pair_coeff 10     33     2.316290266433154443E-01 3.583470155189018680E+00
pair_coeff 11     33     2.507757808618153450E-01 3.536348225738003670E+00
pair_coeff 12      33     2.151119962679723108E-01 3.615821387226038297E+00
pair_coeff 13    33     3.415966358971698341E-02 4.923357824889950329E+00
pair_coeff 14    33     1.258101389489161837E-01 4.280656699257024300E+00
pair_coeff 15    33     2.616892834385430300E-01 3.854885512574417916E+00
pair_coeff 16    33     3.803243686103310317E-01 3.699039803071263677E+00
pair_coeff 17    33     4.591080620755257913E-01 3.680255116494558720E+00
pair_coeff 18   33     2.827484946746637862E-01 3.799730747567426459E+00
pair_coeff 19    33     2.895633663196458540E-01 3.695718669530379863E+00
pair_coeff 20     33     1.405230283158743487E-01 2.943609199247290142E+00
pair_coeff 21      33     0.000000000000000000E+00 0.000000000000000000E+00
pair_coeff 22    33     0.000000000000000000E+00 0.000000000000000000E+00
pair_coeff 23      33     5.638367590708479593E-01 3.475014359704387434E+00
pair_coeff 24   33     3.795605468998184961E-01 2.849544685281790724E+00
pair_coeff 25   33     2.087536618246373654E-01 3.148110481630561619E+00
pair_coeff 26     33     0.000000000000000000E+00 0.000000000000000000E+00
pair_coeff 27   33     8.789740948174059598E-01 2.477381954232469763E+00
pair_coeff 28   33     2.283681785752544047E-01 2.656660503285802832E+00
pair_coeff 29   33     2.907872525699738975E-01 3.204700243411942928E+00
pair_coeff 30     33     4.076860547562866088E-01 3.528262922346804054E+00
pair_coeff 31      33     2.757753428396018114E-01 3.276212563021035251E+00
pair_coeff 32     33     4.576425689077261438E-01 3.559156903043612541E+00
pair_coeff 33     33     6.979198997135206417E-01 3.650798597006346569E+00
pair_coeff 1      34   2.726298193589453134E-01 3.152721713066568121E+00
pair_coeff 2     34   3.166064561130476629E-01 3.075114109819085950E+00
pair_coeff 3     34   2.478452903263138885E-01 3.203202676262477233E+00
pair_coeff 4     34   2.478452903263138885E-01 3.203202676262477233E+00
pair_coeff 5     34   1.943713341779741421E-01 3.376426312885838499E+00
pair_coeff 6      34   1.928146652027906693E-01 3.360831487989961452E+00
pair_coeff 7     34   1.928146652027906693E-01 3.360831487989961452E+00
pair_coeff 8     34   1.928146652027906693E-01 3.360831487989961452E+00
pair_coeff 9     34   1.928146652027906693E-01 3.360831487989961452E+00
pair_coeff 10     34   1.928146652027906693E-01 3.360831487989961452E+00
pair_coeff 11     34   1.928146652027906693E-01 3.360831487989961452E+00
pair_coeff 12      34   1.269630472365963769E-01 3.591194913038851411E+00
pair_coeff 13    34   2.016166023825427880E-02 4.889826040157090326E+00
pair_coeff 14    34   7.425545246819055534E-02 4.251502194534839241E+00
pair_coeff 15    34   1.544538167603142498E-01 3.828630831160853454E+00
pair_coeff 16    34   2.244744208358758208E-01 3.673846548628572073E+00
pair_coeff 17    34   2.709740023024271305E-01 3.655189799952984320E+00
pair_coeff 18   34   1.668833496423683671E-01 3.773851711754483418E+00
pair_coeff 19    34   1.709056119317078348E-01 3.670548034515104696E+00
pair_coeff 20     34   8.293926973590307061E-02 2.923560997691061925E+00
pair_coeff 21      34   0.000000000000000000E+00 0.000000000000000000E+00
pair_coeff 22    34   0.000000000000000000E+00 0.000000000000000000E+00
pair_coeff 23      34   3.327868009112045500E-01 3.451346887707100741E+00
pair_coeff 24   34   7.040831098003642596E-01 2.338401712830169732E+00
pair_coeff 25   34   7.040831098003642596E-01 2.338401712830169732E+00
pair_coeff 26     34   0.000000000000000000E+00 0.000000000000000000E+00
pair_coeff 27   34   5.187866388494037917E-01 2.460509112293086442E+00
pair_coeff 28   34   1.347870892689141398E-01 2.638566639042558393E+00
pair_coeff 29   34   1.716279720534513720E-01 3.182873814678249147E+00
pair_coeff 30     34   2.406237900523386375E-01 3.504232787426495133E+00
pair_coeff 31      34   1.627676674805978718E-01 3.253899081387234382E+00
pair_coeff 32     34   2.701090413448035132E-01 3.534916356784718605E+00
pair_coeff 33     34   4.119251307784054794E-01 3.625933901607006682E+00
pair_coeff 34   34   2.431257705023985027E-01 3.601238553560273559E+00
pair_coeff 1      35   1.774056427875315700E-01 3.022113465134438570E+00
pair_coeff 2     35   1.088910246333028992E-01 3.278234300527326894E+00
pair_coeff 3     35   1.633809098206280841E-01 3.063880240200058669E+00
pair_coeff 4     35   1.633809098206280841E-01 3.063880240200058669E+00
pair_coeff 5     35   1.429238586712428538E-01 3.171290283817308264E+00
pair_coeff 6      35   1.111321413093139809E-01 3.287413047857584036E+00
pair_coeff 7     35   9.596877802844315519E-02 3.368779307561466041E+00
pair_coeff 8     35   7.038127462972523785E-02 3.547464300384358893E+00
pair_coeff 9     35   1.172893810776735740E-01 3.258000194272241412E+00
pair_coeff 10     35   1.005259546387323316E-01 3.342831766990879583E+00
pair_coeff 11     35   1.088355597600791647E-01 3.298874185130554082E+00
pair_coeff 12      35   9.335763782481623640E-02 3.373010538257620983E+00
pair_coeff 13    35   1.482514019187304057E-02 4.592742851080654276E+00
pair_coeff 14    35   5.460103383565441393E-02 3.993200606718578349E+00
pair_coeff 15    35   1.135719707396375816E-01 3.596020949382504384E+00
pair_coeff 16    35   1.650590635421556873E-01 3.450640643166755339E+00
pair_coeff 17    35   1.992508317774452642E-01 3.433117392155260461E+00
pair_coeff 18   35   1.227115735956721548E-01 3.544569955630175073E+00
pair_coeff 19    35   1.256691972052001172E-01 3.447542531497872709E+00
pair_coeff 20     35   6.098636157519143897E-02 2.745938968293540228E+00
pair_coeff 21      35   0.000000000000000000E+00 0.000000000000000000E+00
pair_coeff 22    35   0.000000000000000000E+00 0.000000000000000000E+00
pair_coeff 23      35   2.447026147257768958E-01 3.241659031413521852E+00
pair_coeff 24   35   1.647275683589491391E-01 2.658191106078167110E+00
pair_coeff 25   35   9.059814930521523091E-02 2.936707512061449421E+00
pair_coeff 26     35   0.000000000000000000E+00 0.000000000000000000E+00
pair_coeff 27   35   3.814707995138282293E-01 2.311019971405739337E+00
pair_coeff 28   35   9.911076125937028081E-02 2.478259547281012942E+00
pair_coeff 29   35   1.262003583272166274E-01 2.989497139204101650E+00
pair_coeff 30     35   1.769339121317631824E-01 3.291331828740973631E+00
pair_coeff 31      35   8.507700182510755105E-02 3.235098787405478848E+00
pair_coeff 32     35   1.986148143410966516E-01 3.320151206497628849E+00
pair_coeff 33     35   3.028940940468037857E-01 3.405638946730622507E+00
pair_coeff 34   35   1.787736520386526418E-01 3.382443973685540506E+00
pair_coeff 35   35   1.314546730163348442E-01 3.176942339410103067E+00
pair_coeff 1      36    3.493138043396110115E-02 2.995467182793318806E+00
pair_coeff 2     36    1.286586045970535865E-02 3.538023538529870837E+00
pair_coeff 3     36    3.216989396118666994E-02 3.036865695947625898E+00
pair_coeff 4     36    3.216989396118666994E-02 3.036865695947625898E+00
pair_coeff 5     36    2.814187644704253116E-02 3.143328694266439349E+00
pair_coeff 6      36    2.791649554839393046E-02 3.128810485949500286E+00
pair_coeff 7     36    2.791649554839393046E-02 3.128810485949500286E+00
pair_coeff 8     36    2.791649554839393046E-02 3.128810485949500286E+00
pair_coeff 9     36    2.309441755578705083E-02 3.229274074606136136E+00
pair_coeff 10     36    2.791649554839393046E-02 3.128810485949500286E+00
pair_coeff 11     36    2.791649554839393046E-02 3.128810485949500286E+00
pair_coeff 12      36    1.838222906573640236E-02 3.343270360670348218E+00
pair_coeff 13    36    2.919087599988792053E-03 4.552248169414355949E+00
pair_coeff 14    36    1.075100800082823098E-02 3.957992150107363383E+00
pair_coeff 15    36    2.236245507304574984E-02 3.564314466278117433E+00
pair_coeff 16    36    3.250032440946476475E-02 3.420215993034873669E+00
pair_coeff 17    36    3.923272392714612089E-02 3.402847246312967755E+00
pair_coeff 18   36    2.416205366169842800E-02 3.513317121179974301E+00
pair_coeff 19    36    2.474441324091778208E-02 3.417145197732238238E+00
pair_coeff 20     36    1.200828656852534135E-02 2.721727744630110912E+00
pair_coeff 21      36    0.000000000000000000E+00 0.000000000000000000E+00
pair_coeff 22    36    0.000000000000000000E+00 0.000000000000000000E+00
pair_coeff 23      36    4.818223363057468761E-02 3.213076993445320717E+00
pair_coeff 24   36    1.019400312718368312E-01 2.176965975714864943E+00
pair_coeff 25   36    1.019400312718368312E-01 2.176965975714864943E+00
pair_coeff 26     36    0.000000000000000000E+00 0.000000000000000000E+00
pair_coeff 27   36    7.511205062526553344E-02 2.290643472851174423E+00
pair_coeff 28   36    1.951502585967282086E-02 2.456408480346143008E+00
pair_coeff 29   36    2.484899949270408595E-02 2.963138438331942570E+00
pair_coeff 30     36    3.483849611111720229E-02 3.262311820657642247E+00
pair_coeff 31      36    1.675176206482257082E-02 3.206574591777111127E+00
pair_coeff 32     36    3.910749134331937410E-02 3.290877095024250742E+00
pair_coeff 33     36    5.964020458481446990E-02 3.375611081141380421E+00
pair_coeff 34   36    3.520074306999246977E-02 3.352620620536940876E+00
pair_coeff 35   36    2.588358025598428910E-02 3.148930915109191542E+00
pair_coeff 36    36    5.096507499468877836E-03 3.121166470390387637E+00
pair_coeff 1      37    2.226461306623754022E-01 3.362204455973978323E+00
pair_coeff 2     37    2.585601331580250628E-01 3.279440211868734245E+00
pair_coeff 3     37    1.814556892113898812E-01 3.478816702288478169E+00
pair_coeff 4     37    2.024055733294321535E-01 3.416039629150127599E+00
pair_coeff 5     37    1.587354808368636461E-01 3.600773118478173718E+00
pair_coeff 6      37    1.234266556414602978E-01 3.732622205057627429E+00
pair_coeff 7     37    1.065857741828254851E-01 3.825007768809989717E+00
pair_coeff 8     37    7.816753321752194228E-02 4.027891788010422580E+00
pair_coeff 9     37    1.302650689360985159E-01 3.699226015163477044E+00
pair_coeff 10     37    1.116471098283786517E-01 3.795546193799352430E+00
pair_coeff 11     37    1.208760039875793058E-01 3.745635506050692953E+00
pair_coeff 12      37    1.036857643481583074E-01 3.829812028396864854E+00
pair_coeff 13    37    1.646524085418059336E-02 5.214730762000061581E+00
pair_coeff 14    37    6.064152927768903800E-02 4.533993458352017392E+00
pair_coeff 15    37    1.261364026450952358E-01 4.083024387295987268E+00
pair_coeff 16    37    1.833194965587523484E-01 3.917955455811204413E+00
pair_coeff 17    37    2.212938895114058557E-01 3.898059058590013226E+00
pair_coeff 18   37    1.362871169309986807E-01 4.024605466717271263E+00
pair_coeff 19    37    1.395719415233208360E-01 3.914437771771909880E+00
pair_coeff 20     37    6.773326384502838249E-02 3.117817146058102118E+00
pair_coeff 21      37    0.000000000000000000E+00 0.000000000000000000E+00
pair_coeff 22    37    0.000000000000000000E+00 0.000000000000000000E+00
pair_coeff 23      37    2.717739891131936147E-01 3.680671794426697563E+00
pair_coeff 24   37    1.829513281662208113E-01 3.018185729444698318E+00
pair_coeff 25   37    1.006209944693221142E-01 3.334421172424263169E+00
pair_coeff 26     37    0.000000000000000000E+00 0.000000000000000000E+00
pair_coeff 27   37    4.236727957739777617E-01 2.623997756297280493E+00
pair_coeff 28   37    1.100753540442943462E-01 2.813886323808834078E+00
pair_coeff 29   37    1.401618648355585917E-01 3.394360015399224828E+00
pair_coeff 30     37    1.965080559655630332E-01 3.737071700247052153E+00
pair_coeff 31      37    1.329259999757477217E-01 3.470104559304247438E+00
pair_coeff 32     37    2.205875096632962662E-01 3.769794040818323477E+00
pair_coeff 33     37    3.364031737469428962E-01 3.866859250698725603E+00
pair_coeff 34   37    1.985513257278677390E-01 3.840523019086392154E+00
pair_coeff 35   37    1.459974627294264860E-01 3.607190623033505794E+00
pair_coeff 36    37    2.874707271347901050E-02 3.575385655778474892E+00
pair_coeff 37    37    1.621491167589119986E-01 4.095706752209074430E+00
pair_coeff 1      38   1.763627633860331279E-01 3.063392634298282680E+00
pair_coeff 2     38   2.048110131065301875E-01 2.987983961478049899E+00
pair_coeff 3     38   1.603297848963937400E-01 3.112443272096635738E+00
pair_coeff 4     38   1.603297848963937400E-01 3.112443272096635738E+00
pair_coeff 5     38   1.257377703556508686E-01 3.280758797795926274E+00
pair_coeff 6      38   1.247307695705341529E-01 3.265605835984801697E+00
pair_coeff 7     38   1.247307695705341529E-01 3.265605835984801697E+00
pair_coeff 8     38   1.247307695705341529E-01 3.265605835984801697E+00
pair_coeff 9     38   1.247307695705341529E-01 3.265605835984801697E+00
pair_coeff 10     38   1.247307695705341529E-01 3.265605835984801697E+00
pair_coeff 11     38   1.247307695705341529E-01 3.265605835984801697E+00
pair_coeff 12      38   8.213171219204309925E-02 3.489442153850004225E+00
pair_coeff 13    38   1.304246953774084068E-02 4.751277923558641980E+00
pair_coeff 14    38   4.803545270493036340E-02 4.131040317787165073E+00
pair_coeff 15    38   9.991534309570471173E-02 3.720150573079720857E+00
pair_coeff 16    38   1.452112951590650569E-01 3.569751941621275737E+00
pair_coeff 17    38   1.752916242405209712E-01 3.551623812444546502E+00
pair_coeff 18   38   1.079559410458155871E-01 3.666923562840495698E+00
pair_coeff 19    38   1.105579208808877417E-01 3.566546887462056503E+00
pair_coeff 20     38   5.365296737619508483E-02 2.840724948583317921E+00
pair_coeff 21      38   0.000000000000000000E+00 0.000000000000000000E+00
pair_coeff 22    38   0.000000000000000000E+00 0.000000000000000000E+00
pair_coeff 23      38   2.152779911056781903E-01 3.353556576335538608E+00
pair_coeff 24   38   4.554675757398939928E-01 2.272145541239902311E+00
pair_coeff 25   38   4.554675757398939928E-01 2.272145541239902311E+00
pair_coeff 26     38   0.000000000000000000E+00 0.000000000000000000E+00
pair_coeff 27   38   3.356002855827399101E-01 2.390793155000958237E+00
pair_coeff 28   38   8.719304288914962731E-02 2.563805607595497360E+00
pair_coeff 29   38   1.110252117573227587E-01 3.092690407585096501E+00
pair_coeff 30     38   1.556582352210648112E-01 3.404944009291379192E+00
pair_coeff 31      38   1.052935283978697484E-01 3.161703247501671754E+00
pair_coeff 32     38   1.747320856505523434E-01 3.434758191740909350E+00
pair_coeff 33     38   2.664721509299896041E-01 3.523196849439405476E+00
pair_coeff 34   38   1.572767529134725395E-01 3.499201218301315031E+00
pair_coeff 35   38   1.156477136957594076E-01 3.286605954458409862E+00
pair_coeff 36    38   2.277117131083897586E-02 3.257627614890140855E+00
pair_coeff 37    38   1.284417844007869070E-01 3.731705808274059954E+00
pair_coeff 38   38   1.017414853056947954E-01 3.400055004425153182E+00
pair_coeff 1      39  3.025968882784489944E-01 3.081336470273898787E+00
pair_coeff 2     39  3.514073722894541785E-01 3.005486090817345968E+00
pair_coeff 3     39  2.750880802531354141E-01 3.130674422401240609E+00
pair_coeff 4     39  2.750880802531354141E-01 3.130674422401240609E+00
pair_coeff 5     39  2.157363454631790467E-01 3.299975857040665872E+00
pair_coeff 6      39  2.140085697228813477E-01 3.284734136688360451E+00
pair_coeff 7     39  2.140085697228813477E-01 3.284734136688360451E+00
pair_coeff 8     39  2.140085697228813477E-01 3.284734136688360451E+00
pair_coeff 9     39  2.140085697228813477E-01 3.284734136688360451E+00
pair_coeff 10     39  2.140085697228813477E-01 3.284734136688360451E+00
pair_coeff 11     39  2.140085697228813477E-01 3.284734136688360451E+00
pair_coeff 12      39  1.409186387258750672E-01 3.509881576780662371E+00
pair_coeff 13    39  2.237780028966923282E-02 4.779108555120642698E+00
pair_coeff 14    39  8.241750263201898241E-02 4.155237904815708205E+00
pair_coeff 15    39  1.714311532183001030E-01 3.741941371601773980E+00
pair_coeff 16    39  2.491483191485096838E-01 3.590661779490871286E+00
pair_coeff 17    39  3.007590662454852626E-01 3.572427464716889212E+00
pair_coeff 18   39  1.852269220806647965E-01 3.688402583913419353E+00
pair_coeff 19    39  1.896913055272583803E-01 3.587437951712664219E+00
pair_coeff 20     39  9.205583232672064076E-02 2.857364507599851500E+00
pair_coeff 21      39  0.000000000000000000E+00 0.000000000000000000E+00
pair_coeff 22    39  0.000000000000000000E+00 0.000000000000000000E+00
pair_coeff 23      39  3.693662367992399664E-01 3.373200048891741964E+00
pair_coeff 24   39  7.814748900761182560E-01 2.285454643849949008E+00
pair_coeff 25   39  7.814748900761182560E-01 2.285454643849949008E+00
pair_coeff 26     39  0.000000000000000000E+00 0.000000000000000000E+00
pair_coeff 27   39  5.758109034638668744E-01 2.404797236536131866E+00
pair_coeff 28   39  1.496026879553617739E-01 2.578823110340977554E+00
pair_coeff 29   39  1.904930664115593308E-01 3.110805855398001363E+00
pair_coeff 30     39  2.670728032862023649E-01 3.424888483964596109E+00
pair_coeff 31      39  1.806588501866098206E-01 3.180222938331227489E+00
pair_coeff 32     39  2.997990300510781636E-01 3.454877303120381882E+00
pair_coeff 33     39  4.572033355350892392E-01 3.543833990649556398E+00
pair_coeff 34   39  2.698497977488837352E-01 3.519697804995386647E+00
pair_coeff 35   39  1.984241890350484927E-01 3.305857263449297090E+00
pair_coeff 36    39  3.906995699558794138E-02 3.276709183128165837E+00
pair_coeff 37    39  2.203757955387509737E-01 3.753564291637640160E+00
pair_coeff 38   39  1.745857558702323398E-01 3.420002180612172538E+00
pair_coeff 39  39  2.995112907802387481E-01 3.440003336141669088E+00
pair_coeff 1      40   7.770287548036601544E-02 2.465397265096893165E+00
pair_coeff 2     40   9.023676167734992482E-02 2.404708885274443819E+00
pair_coeff 3     40   7.063897770942365040E-02 2.504872880114495270E+00
pair_coeff 4     40   7.063897770942365040E-02 2.504872880114495270E+00
pair_coeff 5     40   5.539823784535763407E-02 2.640332054392829697E+00
pair_coeff 6      40   5.495456790555701410E-02 2.628137055231117181E+00
pair_coeff 7     40   5.495456790555701410E-02 2.628137055231117181E+00
pair_coeff 8     40   5.495456790555701410E-02 2.628137055231117181E+00
pair_coeff 9     40   5.495456790555701410E-02 2.628137055231117181E+00
pair_coeff 10     40   5.495456790555701410E-02 2.628137055231117181E+00
pair_coeff 11     40   5.495456790555701410E-02 2.628137055231117181E+00
pair_coeff 12      40   3.618604110595938922E-02 2.808278980140014092E+00
pair_coeff 13    40   5.746322902807278477E-03 3.823795705227954755E+00
pair_coeff 14    40   2.116372372780480487E-02 3.324632757632268287E+00
pair_coeff 15    40   4.402125093804482719E-02 2.993951524832954014E+00
pair_coeff 16    40   6.397799041847561374E-02 2.872911743474042101E+00
pair_coeff 17    40   7.723094710927499995E-02 2.858322350135023004E+00
pair_coeff 18   40   4.756382176938069029E-02 2.951114794077698278E+00
pair_coeff 19    40   4.871021634409310186E-02 2.870332337990671334E+00
pair_coeff 20     40   2.363871921228234349E-02 2.286195847282922244E+00
pair_coeff 21      40   0.000000000000000000E+00 0.000000000000000000E+00
pair_coeff 22    40   0.000000000000000000E+00 0.000000000000000000E+00
pair_coeff 23      40   9.484836036467202136E-02 2.698919204504523606E+00
pair_coeff 24   40   2.006724075058574086E-01 1.828607061516331456E+00
pair_coeff 25   40   2.006724075058574086E-01 1.828607061516331456E+00
pair_coeff 26     40   0.000000000000000000E+00 0.000000000000000000E+00
pair_coeff 27   40   1.478606180871174514E-01 1.924093842806378074E+00
pair_coeff 28   40   3.841598999863683750E-02 2.063333071457193135E+00
pair_coeff 29   40   4.891609792639325244E-02 2.488975910983167061E+00
pair_coeff 30     40   6.858076068133200920E-02 2.740275456148935529E+00
pair_coeff 31      40   4.639080137386862590E-02 2.544516968594239259E+00
pair_coeff 32     40   7.698442252240610129E-02 2.764269704567898334E+00
pair_coeff 33     40   1.174037646335611834E-01 2.835444526357811412E+00
pair_coeff 34   40   6.929385610069017931E-02 2.816133007906088892E+00
pair_coeff 35   40   5.095270523302689036E-02 2.645037805749309356E+00
pair_coeff 36    40   1.003264779331716934E-02 2.621716237916714931E+00
pair_coeff 37    40   5.658958721306098921E-02 3.003251098425550492E+00
pair_coeff 38   40   4.492103907914993949E-02 2.799891255752950503E+00
pair_coeff 39  40   7.712993371945030263E-02 2.820082387646319688E+00
pair_coeff 40   40   1.974960730563848910E-02 2.202188219488486975E+00
pair_coeff 1      41  3.078683944880841739E-01 3.134598379462572915E+00
pair_coeff 2     41  3.575292004274581159E-01 3.057436901376735072E+00
pair_coeff 3     41  2.798803586255310671E-01 3.184789154237201991E+00
pair_coeff 4     41  2.798803586255310671E-01 3.184789154237201991E+00
pair_coeff 5     41  2.194946639681157330E-01 3.357017019574562333E+00
pair_coeff 6      41  2.177367888418141884E-01 3.341511841098447899E+00
pair_coeff 7     41  2.177367888418141884E-01 3.341511841098447899E+00
pair_coeff 8     41  2.177367888418141884E-01 3.341511841098447899E+00
pair_coeff 9     41  2.177367888418141884E-01 3.341511841098447899E+00
pair_coeff 10     41  2.177367888418141884E-01 3.341511841098447899E+00
pair_coeff 11     41  2.177367888418141884E-01 3.341511841098447899E+00
pair_coeff 12      41  1.433735664130799115E-01 3.570551028367321855E+00
pair_coeff 13    41  2.276764142074000352E-02 4.861717010354688284E+00
pair_coeff 14    41  8.385328863556677781E-02 4.227062551711202154E+00
pair_coeff 15    41  1.744176359738121573E-01 3.806622052678410917E+00
pair_coeff 16    41  2.534887038728330655E-01 3.652727543314932213E+00
pair_coeff 17    41  3.059985559650827969E-01 3.634178042443301226E+00
pair_coeff 18   41  1.884537393671708305E-01 3.752157829525465615E+00
pair_coeff 19    41  1.929958963334948985E-01 3.649447990618651438E+00
pair_coeff 20     41  9.365952658314305457E-02 2.906754988123776862E+00
pair_coeff 21      41  0.000000000000000000E+00 0.000000000000000000E+00
pair_coeff 22    41  0.000000000000000000E+00 0.000000000000000000E+00
pair_coeff 23      41  3.758009242872520916E-01 3.431506915542800851E+00
pair_coeff 24   41  7.950888758614560459E-01 2.324959475233958628E+00
pair_coeff 25   41  7.950888758614560459E-01 2.324959475233958628E+00
pair_coeff 26     41  0.000000000000000000E+00 0.000000000000000000E+00
pair_coeff 27   41  5.858420401700457081E-01 2.446364943686976545E+00
pair_coeff 28   41  1.522088994832513364E-01 2.623398911666701139E+00
pair_coeff 29   41  1.938116246035951340E-01 3.164577152551757422E+00
pair_coeff 30     41  2.717254484239552959E-01 3.484088802129798879E+00
pair_coeff 31      41  1.838060876086547446E-01 3.235194132478707463E+00
pair_coeff 32     41  3.050217950885778517E-01 3.514595987837878077E+00
pair_coeff 33     41  4.651682231981815185E-01 3.605090320820125260E+00
pair_coeff 34   41  2.745508205934842905E-01 3.580536933298883895E+00
pair_coeff 35   41  2.018809144184158522E-01 3.363000088017528810E+00
pair_coeff 36    41  3.975059030310198332E-02 3.333348173589975261E+00
pair_coeff 37    41  2.242149373793861367E-01 3.818445878690444051E+00
pair_coeff 38   41  1.776054487496074863E-01 3.479086156840626831E+00
pair_coeff 39  41  3.047290431444037995E-01 3.499464919472758506E+00
pair_coeff 40   41  7.825038462692963936E-02 2.799944545168011611E+00
pair_coeff 41  41  3.100376933831125448E-01 3.559954315729227936E+00
pair_coeff 1      42  2.517150719017874350E-01 3.216286733597559344E+00
pair_coeff 2     42  2.923180488930291476E-01 3.137114409660223480E+00
pair_coeff 3     42  2.288318835470794788E-01 3.267785491497223305E+00
pair_coeff 4     42  2.288318835470794788E-01 3.267785491497223305E+00
pair_coeff 5     42  1.794601723072659361E-01 3.444501654585188533E+00
pair_coeff 6      42  1.780229229119614787E-01 3.428592407594721170E+00
pair_coeff 7     42  1.780229229119614787E-01 3.428592407594721170E+00
pair_coeff 8     42  1.780229229119614787E-01 3.428592407594721170E+00
pair_coeff 9     42  1.780229229119614787E-01 3.428592407594721170E+00
pair_coeff 10     42  1.780229229119614787E-01 3.428592407594721170E+00
pair_coeff 11     42  1.780229229119614787E-01 3.428592407594721170E+00
pair_coeff 12      42  1.172230999498745652E-01 3.663600408719620116E+00
pair_coeff 13    42  1.861496210673063006E-02 4.988414472922134912E+00
pair_coeff 14    42  6.855895881485152277E-02 4.337220773235620719E+00
pair_coeff 15    42  1.426049200441300291E-01 3.905823498176049124E+00
pair_coeff 16    42  2.072539060975635561E-01 3.747918462531858008E+00
pair_coeff 17    42  2.501862805523388245E-01 3.728885557404626905E+00
pair_coeff 18   42  1.540809235512614617E-01 3.849939924851243589E+00
pair_coeff 19    42  1.577946187139902257E-01 3.744553443938634096E+00
pair_coeff 20     42  7.657659860592054557E-02 2.982505691119483604E+00
pair_coeff 21      42  0.000000000000000000E+00 0.000000000000000000E+00
pair_coeff 22    42  0.000000000000000000E+00 0.000000000000000000E+00
pair_coeff 23      42  3.072571214561132247E-01 3.520932774360979955E+00
pair_coeff 24   42  6.500695009260647472E-01 2.385548453460561547E+00
pair_coeff 25   42  6.500695009260647472E-01 2.385548453460561547E+00
pair_coeff 26     42  0.000000000000000000E+00 0.000000000000000000E+00
pair_coeff 27   42  4.789880153488779158E-01 2.510117776321816319E+00
pair_coeff 28   42  1.244469220077783211E-01 2.691765290191502125E+00
pair_coeff 29   42  1.584615631091823018E-01 3.247046760402909182E+00
pair_coeff 30     42  2.221643793651205678E-01 3.574884956996347896E+00
pair_coeff 31      42  1.502809752047785663E-01 3.319504035055336644E+00
pair_coeff 32     42  2.493876749186909880E-01 3.606187166974876845E+00
pair_coeff 33     42  3.803243686103310317E-01 3.699039803071263677E+00
pair_coeff 34   42  2.244744208358758208E-01 3.673846548628572073E+00
pair_coeff 35   42  1.650590635421556873E-01 3.450640643166755339E+00
pair_coeff 36    42  3.250032440946476475E-02 3.420215993034873669E+00
pair_coeff 37    42  1.833194965587523484E-01 3.917955455811204413E+00
pair_coeff 38   42  1.452112951590650569E-01 3.569751941621275737E+00
pair_coeff 39  42  2.491483191485096838E-01 3.590661779490871286E+00
pair_coeff 40   42  6.397799041847561374E-02 2.872911743474042101E+00
pair_coeff 41  42  2.534887038728330655E-01 3.652727543314932213E+00
pair_coeff 42  42  2.072539060975635561E-01 3.747918462531858008E+00
pair_coeff 1      43  3.540045720962458620E-01 2.694267436109534231E+00
pair_coeff 2     43  4.111073883361350823E-01 2.627945173235017418E+00
pair_coeff 3     43  2.223108962183115156E-01 2.911490578234520399E+00
pair_coeff 4     43  3.218223382693144452E-01 2.737407690042663599E+00
pair_coeff 5     43  1.944751755089789147E-01 3.013558317663839858E+00
pair_coeff 6      43  1.512164790871689257E-01 3.123905428815852758E+00
pair_coeff 7     43  1.305838306072752142E-01 3.201224736341582222E+00
pair_coeff 8     43  9.576715086909036445E-02 3.371022389085928772E+00
pair_coeff 9     43  1.595945784173651294E-01 3.095955496253500083E+00
pair_coeff 10     43  1.367847387646038970E-01 3.176567760880071756E+00
pair_coeff 11     43  1.480915417673231704E-01 3.134796518078508232E+00
pair_coeff 12      43  1.648590726968548470E-01 3.068979881992677683E+00
pair_coeff 13    43  2.617952769134209573E-02 4.178770049266796960E+00
pair_coeff 14    43  9.641927555329404820E-02 3.633268318548095621E+00
pair_coeff 15    43  2.005553077041754007E-01 3.271888962013142610E+00
pair_coeff 16    43  2.914757141438480414E-01 3.139612697248032713E+00
pair_coeff 17    43  3.518545255241552483E-01 3.123668927072572821E+00
pair_coeff 18   43  2.166948168731066826E-01 3.225075569957748023E+00
pair_coeff 19    43  2.219176470240586396E-01 3.136793837871186597E+00
pair_coeff 20     43  1.076950451050141949E-01 2.498430216949698135E+00
pair_coeff 21      43  0.000000000000000000E+00 0.000000000000000000E+00
pair_coeff 22    43  0.000000000000000000E+00 0.000000000000000000E+00
pair_coeff 23      43  4.321172545720066149E-01 2.949467912669808012E+00
pair_coeff 24   43  2.241432820636522216E-01 2.525979396632042295E+00
pair_coeff 25   43  1.232760656668827753E-01 2.790643100279648792E+00
pair_coeff 26     43  0.000000000000000000E+00 0.000000000000000000E+00
pair_coeff 27   43  5.190637964627597967E-01 2.196075677037649054E+00
pair_coeff 28   43  1.348590981935383903E-01 2.354997178955427373E+00
pair_coeff 29   43  1.717196629251071804E-01 2.840807104746190692E+00
pair_coeff 30     43  3.124453591831943267E-01 2.994663388329067644E+00
pair_coeff 31      43  2.113506828162100282E-01 2.780732057331203322E+00
pair_coeff 32     43  3.507313903718691228E-01 3.020885094292788509E+00
pair_coeff 33     43  5.348768524286334758E-01 3.098667286775234508E+00
pair_coeff 34   43  3.156941326324790298E-01 3.077563022548567950E+00
pair_coeff 35   43  1.788691604327004581E-01 3.018929254291899511E+00
pair_coeff 36    43  3.521954878549677509E-02 2.992311047462213214E+00
pair_coeff 37    43  2.578150741863444728E-01 3.282051842720017820E+00
pair_coeff 38   43  2.042208359552802888E-01 2.990363486821641992E+00
pair_coeff 39  43  3.503947675532131378E-01 3.007879554241217335E+00
pair_coeff 40   43  8.997673818477992802E-02 2.406623910860338000E+00
pair_coeff 41  43  3.564989552184898436E-01 3.059871736599097503E+00
pair_coeff 42  43  2.914757141438480414E-01 3.139612697248032713E+00
pair_coeff 43  43  4.099227538595709985E-01 2.630037976349726581E+00
pair_coeff 1      44   1.289710283612314212E-01 3.227417274371960687E+00
pair_coeff 2     44   1.497747397064584929E-01 3.147970960317207023E+00
pair_coeff 3     44   1.172463894193012807E-01 3.279094253018750571E+00
pair_coeff 4     44   1.172463894193012807E-01 3.279094253018750571E+00
pair_coeff 5     44   9.194984947656417718E-02 3.456421974285966314E+00
pair_coeff 6      44   9.121344727734942426E-02 3.440457670474703633E+00
pair_coeff 7     44   9.121344727734942426E-02 3.440457670474703633E+00
pair_coeff 8     44   9.121344727734942426E-02 3.440457670474703633E+00
pair_coeff 9     44   9.121344727734942426E-02 3.440457670474703633E+00
pair_coeff 10     44   9.121344727734942426E-02 3.440457670474703633E+00
pair_coeff 11     44   9.121344727734942426E-02 3.440457670474703633E+00
pair_coeff 12      44   6.006149585721085732E-02 3.676278959205930619E+00
pair_coeff 13    44   9.537731641064108729E-03 5.005677781603687038E+00
pair_coeff 14    44   3.512749298213131699E-02 4.352230508580356094E+00
pair_coeff 15    44   7.306635652965057237E-02 3.919340305384166889E+00
pair_coeff 16    44   1.061905002323981356E-01 3.760888810862612175E+00
pair_coeff 17    44   1.281877228920814960E-01 3.741790038931789741E+00
pair_coeff 18   44   7.894630627842579018E-02 3.863263336867006181E+00
pair_coeff 19    44   8.084908897847854770E-02 3.757512147015167780E+00
pair_coeff 20     44   3.923548397794881376E-02 2.992827190399418136E+00
pair_coeff 21      44   0.000000000000000000E+00 0.000000000000000000E+00
pair_coeff 22    44   0.000000000000000000E+00 0.000000000000000000E+00
pair_coeff 23      44   1.574290590790217992E-01 3.533117597747393646E+00
pair_coeff 24   44   3.330755342032887256E-01 2.393804074470089471E+00
pair_coeff 25   44   3.330755342032887256E-01 2.393804074470089471E+00
pair_coeff 26     44   0.000000000000000000E+00 0.000000000000000000E+00
pair_coeff 27   44   2.454186650227814237E-01 2.518804491957598035E+00
pair_coeff 28   44   6.376275916443908953E-02 2.701080629836012825E+00
pair_coeff 29   44   8.119081068730508999E-02 3.258283751802188988E+00
pair_coeff 30     44   1.138301662092522648E-01 3.587256491649024159E+00
pair_coeff 31      44   7.699933011103650415E-02 3.330991777931932241E+00
pair_coeff 32     44   1.277785420311642051E-01 3.618667028575163869E+00
pair_coeff 33     44   1.948664597630800355E-01 3.711840997978461676E+00
pair_coeff 34   44   1.150137601108388863E-01 3.686560557731444199E+00
pair_coeff 35   44   8.457116613851239917E-02 3.462582207945594348E+00
pair_coeff 36    44   1.665216242115909184E-02 3.432052267820347335E+00
pair_coeff 37    44   9.392724802379077975E-02 3.931514247848511001E+00
pair_coeff 38   44   7.440178263794279545E-02 3.582105712547747789E+00
pair_coeff 39  44   1.276559035272747666E-01 3.603087912685470684E+00
pair_coeff 40   44   3.278034626379167787E-02 2.882853973116679569E+00
pair_coeff 41  44   1.298797826027309477E-01 3.665368466287981519E+00
pair_coeff 42  44   1.061905002323981356E-01 3.760888810862612175E+00
pair_coeff 43  44   1.493431533973610947E-01 3.150477893680148966E+00
pair_coeff 44   44   5.440873251526867627E-02 3.773904045424884668E+00
pair_coeff 1      45  2.876124418215142975E-01 3.084725325848334254E+00
pair_coeff 2     45  3.340058550940822601E-01 3.008791526102005953E+00
pair_coeff 3     45  2.614658562013765786E-01 3.134117539883036763E+00
pair_coeff 4     45  2.614658562013765786E-01 3.134117539883036763E+00
pair_coeff 5     45  2.050531896125046272E-01 3.303605172335025486E+00
pair_coeff 6      45  2.034109724621096793E-01 3.288346689130147382E+00
pair_coeff 7     45  2.034109724621096793E-01 3.288346689130147382E+00
pair_coeff 8     45  2.034109724621096793E-01 3.288346689130147382E+00
pair_coeff 9     45  2.034109724621096793E-01 3.288346689130147382E+00
pair_coeff 10     45  2.034109724621096793E-01 3.288346689130147382E+00
pair_coeff 11     45  2.034109724621096793E-01 3.288346689130147382E+00
pair_coeff 12      45  1.339404182663543053E-01 3.513741746503062924E+00
pair_coeff 13    45  2.126966281947830981E-02 4.784364621384128213E+00
pair_coeff 14    45  7.833622915187883617E-02 4.159807837788846996E+00
pair_coeff 15    45  1.629419683127158180E-01 3.746056760816388831E+00
pair_coeff 16    45  2.368106190837268310E-01 3.594610791325419719E+00
pair_coeff 17    45  2.858656278157876152E-01 3.576356422441845595E+00
pair_coeff 18   45  1.760545776058381751E-01 3.692459091139371985E+00
pair_coeff 19    45  1.802978870185932558E-01 3.591383417979618908E+00
pair_coeff 20     45  8.749727358411062139E-02 2.860507038684394931E+00
pair_coeff 21      45  0.000000000000000000E+00 0.000000000000000000E+00
pair_coeff 22    45  0.000000000000000000E+00 0.000000000000000000E+00
pair_coeff 23      45  3.510754056218069463E-01 3.376909896193278637E+00
pair_coeff 24   45  7.427766446499820541E-01 2.287968188146278781E+00
pair_coeff 25   45  7.427766446499820541E-01 2.287968188146278781E+00
pair_coeff 26     45  0.000000000000000000E+00 0.000000000000000000E+00
pair_coeff 27   45  5.472970357193517321E-01 2.407442033882686516E+00
pair_coeff 28   45  1.421944377243884450E-01 2.581659301440933696E+00
pair_coeff 29   45  1.810599451051872477E-01 3.114227121418688515E+00
pair_coeff 30     45  2.538474917381768337E-01 3.428655178235952672E+00
pair_coeff 31      45  1.717127143456437521E-01 3.183720549298572955E+00
pair_coeff 32     45  2.849531321332268163E-01 3.458676979111828587E+00
pair_coeff 33     45  4.345628551909777593E-01 3.547731501255731335E+00
pair_coeff 34   45  2.564869708249599145E-01 3.523568770611071432E+00
pair_coeff 35   45  1.885983225059109647E-01 3.309493047117717079E+00
pair_coeff 36    45  3.713523227979241559E-02 3.280312909721536219E+00
pair_coeff 37    45  2.094628964423923267E-01 3.757692463746214351E+00
pair_coeff 38   45  1.659200415184466093E-01 3.423732127576304407E+00
pair_coeff 39  45  2.846796415670648783E-01 3.443786653735909642E+00
pair_coeff 40   45  7.310196369278490480E-02 2.755396004170551638E+00
pair_coeff 41  45  2.896390134456565679E-01 3.503313632949622392E+00
pair_coeff 42  45  2.368106190837268310E-01 3.594610791325419719E+00
pair_coeff 43  45  3.330433940375682744E-01 3.011187621858291141E+00
pair_coeff 44   45  1.213344470767514366E-01 3.607050590788261513E+00
pair_coeff 45  45  2.705824481996443320E-01 3.447574132224956678E+00
pair_coeff 1      46   1.591939588900956049E-01 2.914305969007454422E+00
pair_coeff 2     46   1.848727893277152534E-01 2.842567223260527687E+00
pair_coeff 3     46   1.297424277832890105E-01 3.015383630983031082E+00
pair_coeff 4     46   1.447217808091778302E-01 2.960969450834395111E+00
pair_coeff 5     46   1.134972772065044738E-01 3.121093535396749274E+00
pair_coeff 6      46   8.825115390810175930E-02 3.235378250992776650E+00
pair_coeff 7     46   7.620977424152966528E-02 3.315456605363892528E+00
pair_coeff 8     46   5.589047980555466449E-02 3.491313283895585595E+00
pair_coeff 9     46   9.314068008877877947E-02 3.206430958576428125E+00
pair_coeff 10     46   7.982867413568051074E-02 3.289919775276922032E+00
pair_coeff 11     46   8.642741534447667684E-02 3.246657975726112255E+00
pair_coeff 12      46   7.413624147890124361E-02 3.319620862051439580E+00
pair_coeff 13    46   1.177279330145077942E-02 4.520046649590542032E+00
pair_coeff 14    46   4.335923148605760197E-02 3.929994255893134447E+00
pair_coeff 15    46   9.018864705840204388E-02 3.539101354278793465E+00
pair_coeff 16    46   1.310750665736078457E-01 3.396022199330606561E+00
pair_coeff 17    46   1.582270944691577808E-01 3.378776314988137131E+00
pair_coeff 18   46   9.744649783680001121E-02 3.488464752259239798E+00
pair_coeff 19    46   9.979517656548757276E-02 3.392973126102896142E+00
pair_coeff 20     46   4.842988462435294378E-02 2.702474890510119909E+00
pair_coeff 21      46   0.000000000000000000E+00 0.000000000000000000E+00
pair_coeff 22    46   0.000000000000000000E+00 0.000000000000000000E+00
pair_coeff 23      46   1.943208135778947410E-01 3.190348451711801925E+00
pair_coeff 24   46   1.308118229063097715E-01 2.616115944782948066E+00
pair_coeff 25   46   7.194490382282986429E-02 2.890223855576281586E+00
pair_coeff 26     46   0.000000000000000000E+00 0.000000000000000000E+00
pair_coeff 27   46   3.029298080889223921E-01 2.274440006244081047E+00
pair_coeff 28   46   7.870485480438377257E-02 2.439032431538718626E+00
pair_coeff 29   46   1.002169769679346900E-01 2.942177902435911818E+00
pair_coeff 30     46   1.405050035672634479E-01 3.239235003477465291E+00
pair_coeff 31      46   9.504326939170110178E-02 3.007832082398090190E+00
pair_coeff 32     46   1.577220266102814239E-01 3.267598213893569081E+00
pair_coeff 33     46   2.405312540247006858E-01 3.351732811965022041E+00
pair_coeff 34   46   1.419659595765774829E-01 3.328904980405696268E+00
pair_coeff 35   46   1.043894812394069449E-01 3.126656127462947410E+00
pair_coeff 36    46   2.055441205353729026E-02 3.099088081816367968E+00
pair_coeff 37    46   1.159380571788471426E-01 3.550094228820277475E+00
pair_coeff 38   46   9.183701546862199638E-02 3.234583932666422079E+00
pair_coeff 39  46   1.575706491327610870E-01 3.253530522433367267E+00
pair_coeff 40   46   4.046205695828821586E-02 2.603170841386070578E+00
pair_coeff 41  46   1.603156696122686187E-01 3.309768862160356484E+00
pair_coeff 42  46   1.310750665736078457E-01 3.396022199330606561E+00
pair_coeff 43  46   1.843400655522983711E-01 2.844830943827911796E+00
pair_coeff 44   46   6.715881572284602974E-02 3.407774747126039561E+00
pair_coeff 45  46   1.497678294522704623E-01 3.257108757122733511E+00
pair_coeff 46   46   8.289673956344170702E-02 3.077165870507050371E+00
pair_coeff 1      47   1.722085049816445279E-01 3.045791995942584762E+00
pair_coeff 2     47   1.999866507741778487E-01 2.970816581583684446E+00
pair_coeff 3     47   1.565531863469495633E-01 3.094560814646859725E+00
pair_coeff 4     47   1.565531863469495633E-01 3.094560814646859725E+00
pair_coeff 5     47   1.227759932819626476E-01 3.261909288109908545E+00
pair_coeff 6      47   1.217927125916918318E-01 3.246843387225244904E+00
pair_coeff 7     47   1.217927125916918318E-01 3.246843387225244904E+00
pair_coeff 8     47   1.217927125916918318E-01 3.246843387225244904E+00
pair_coeff 9     47   1.217927125916918318E-01 3.246843387225244904E+00
pair_coeff 10     47   1.217927125916918318E-01 3.246843387225244904E+00
pair_coeff 11     47   1.217927125916918318E-01 3.246843387225244904E+00
pair_coeff 12      47   8.019708410451541203E-02 3.469393659665676477E+00
pair_coeff 13    47   1.273525168942131643E-02 4.723979586569880595E+00
pair_coeff 14    47   4.690396848866595220E-02 4.107305538950095425E+00
pair_coeff 15    47   9.756181820295757590E-02 3.698776550000724583E+00
pair_coeff 16    47   1.417908155082314992E-01 3.549242029754096084E+00
pair_coeff 17    47   1.711625967222450972E-01 3.531218055246321708E+00
pair_coeff 18   47   1.054130183404619059E-01 3.645855354088885392E+00
pair_coeff 19    47   1.079537080460851450E-01 3.546055390145638864E+00
pair_coeff 20     47   5.238916153439685669E-02 2.824403641308426582E+00
pair_coeff 21      47   0.000000000000000000E+00 0.000000000000000000E+00
pair_coeff 22    47   0.000000000000000000E+00 0.000000000000000000E+00
pair_coeff 23      47   2.102070771175983122E-01 3.334288809009665400E+00
pair_coeff 24   47   4.447389504444150266E-01 2.259090991354548272E+00
pair_coeff 25   47   4.447389504444150266E-01 2.259090991354548272E+00
pair_coeff 26     47   0.000000000000000000E+00 0.000000000000000000E+00
pair_coeff 27   47   3.276951570843523731E-01 2.377056918505081384E+00
pair_coeff 28   47   8.513919419528666321E-02 2.549075332798732774E+00
pair_coeff 29   47   1.084099917971301230E-01 3.074921439676577162E+00
pair_coeff 30     47   1.519916759119208927E-01 3.385380996878945226E+00
pair_coeff 31      47   1.028133193283557872E-01 3.143537768214339501E+00
pair_coeff 32     47   1.706162381700878361E-01 3.415023882760973351E+00
pair_coeff 33     47   2.601953487792239561E-01 3.502954418577414852E+00
pair_coeff 34   47   1.535720691125297410E-01 3.479096653679860207E+00
pair_coeff 35   47   1.129236098240292002E-01 3.267722850094167519E+00
pair_coeff 36    47   2.223479204358534689E-02 3.238911004781051872E+00
pair_coeff 37    47   1.254163137624429714E-01 3.710265394908199177E+00
pair_coeff 38   47   9.934494528618387221E-02 3.380520081656078979E+00
pair_coeff 39  47   1.704524851654297402E-01 3.400321493064580203E+00
pair_coeff 40   47   4.376994193654968474E-02 2.720619247630047699E+00
pair_coeff 41  47   1.734219186553421499E-01 3.459097162753066002E+00
pair_coeff 42  47   1.417908155082314992E-01 3.549242029754096084E+00
pair_coeff 43  47   1.994103753578723159E-01 2.973182435429682080E+00
pair_coeff 44   47   7.264923450991972453E-02 3.561524822428556725E+00
pair_coeff 45  47   1.620117634119973837E-01 3.404061168545596594E+00
pair_coeff 46   47   8.967377711819192465E-02 3.215999719401493095E+00
pair_coeff 47   47   9.700485622222822235E-02 3.361097396249958624E+00
pair_coeff 1      48  1.891372059020736129E-01 3.289260052245521315E+00
pair_coeff 2     48  2.196460409964854366E-01 3.208291412338459381E+00
pair_coeff 3     48  1.719429144564305345E-01 3.341927249274361689E+00
pair_coeff 4     48  1.719429144564305345E-01 3.341927249274361689E+00
pair_coeff 5     48  1.348453046710865466E-01 3.522652869835305456E+00
pair_coeff 6      48  1.337653640351980922E-01 3.506382662940996653E+00
pair_coeff 7     48  1.337653640351980922E-01 3.506382662940996653E+00
pair_coeff 8     48  1.337653640351980922E-01 3.506382662940996653E+00
pair_coeff 9     48  1.337653640351980922E-01 3.506382662940996653E+00
pair_coeff 10     48  1.337653640351980922E-01 3.506382662940996653E+00
pair_coeff 11     48  1.337653640351980922E-01 3.506382662940996653E+00
pair_coeff 12      48  8.808073916348332921E-02 3.746722686727856910E+00
pair_coeff 13    48  1.398717166294168902E-02 5.101595040773273304E+00
pair_coeff 14    48  5.151479334084436285E-02 4.435626611939518682E+00
pair_coeff 15    48  1.071524876172654656E-01 3.994441499717314326E+00
pair_coeff 16    48  1.557293507115795339E-01 3.832953806357374926E+00
pair_coeff 17    48  1.879884811870324024E-01 3.813489069628770434E+00
pair_coeff 18   48  1.157754883055521766E-01 3.937290001564532460E+00
pair_coeff 19    48  1.185659367333865843E-01 3.829512439915094824E+00
pair_coeff 20     48  5.753920012965894198E-02 3.050174825184523542E+00
pair_coeff 21      48  0.000000000000000000E+00 0.000000000000000000E+00
pair_coeff 22    48  0.000000000000000000E+00 0.000000000000000000E+00
pair_coeff 23      48  2.308711711486143847E-01 3.600818111261308019E+00
pair_coeff 24   48  4.884583514144283378E-01 2.439673412415888976E+00
pair_coeff 25   48  4.884583514144283378E-01 2.439673412415888976E+00
pair_coeff 26     48  0.000000000000000000E+00 0.000000000000000000E+00
pair_coeff 27   48  3.599087420518621294E-01 2.567069049484753673E+00
pair_coeff 28   48  9.350867603529200434E-02 2.752837906695117631E+00
pair_coeff 29   48  1.190670747798516088E-01 3.320717983629539294E+00
pair_coeff 30     48  1.669329915233766226E-01 3.655994398008439283E+00
pair_coeff 31      48  1.129202297491380125E-01 3.394819218609366196E+00
pair_coeff 32     48  1.873884136701188530E-01 3.688006813989214816E+00
pair_coeff 33     48  2.857734654979058875E-01 3.782966154357451316E+00
pair_coeff 34   48  1.686687429267214045E-01 3.757201298084295260E+00
pair_coeff 35   48  1.240243973128351274E-01 3.528931143998987441E+00
pair_coeff 36    48  2.442055020096505283E-02 3.497816198544354993E+00
pair_coeff 37    48  1.377451779288986211E-01 4.006848715525531901E+00
pair_coeff 38   48  1.091109023559897889E-01 3.650744921261102061E+00
pair_coeff 39  48  1.872085631699220987E-01 3.672129175869041973E+00
pair_coeff 40   48  4.807268097041665633E-02 2.938094334912183747E+00
pair_coeff 41  48  1.904699024019997078E-01 3.735603130297924235E+00
pair_coeff 42  48  1.557293507115795339E-01 3.832953806357374926E+00
pair_coeff 43  48  2.190131156825951553E-01 3.210846382788003606E+00
pair_coeff 44   48  7.979090944198904967E-02 3.846218434844132616E+00
pair_coeff 45  48  1.779380888201725353E-01 3.676167785591720083E+00
pair_coeff 46   48  9.848902438719817076E-02 3.473073479460133228E+00
pair_coeff 47   48  1.065407743175067756E-01 3.629769666450928245E+00
pair_coeff 48  48  1.170141066563726712E-01 3.919918490367800601E+00
pair_coeff 1      49   2.491558874764578380E-01 2.855793572536012626E+00
pair_coeff 2     49   2.893460544378792521E-01 2.785495171755656862E+00
pair_coeff 3     49   2.030610329881481768E-01 2.954841833242532800E+00
pair_coeff 4     49   2.265053522513252593E-01 2.901520161607548776E+00
pair_coeff 5     49   1.776356026680076250E-01 3.058429331874637391E+00
pair_coeff 6      49   1.762129657718276565E-01 3.044303251377937780E+00
pair_coeff 7     49   1.192765986091082336E-01 3.248890049401691016E+00
pair_coeff 8     49   1.762129657718276565E-01 3.044303251377937780E+00
pair_coeff 9     49   1.457753106303604218E-01 3.142053380689358466E+00
pair_coeff 10     49   1.762129657718276565E-01 3.044303251377937780E+00
pair_coeff 11     49   1.762129657718276565E-01 3.044303251377937780E+00
pair_coeff 12      49   1.160312939550487005E-01 3.252970697627771912E+00
pair_coeff 13    49   1.842570398745426927E-02 4.429294764084048097E+00
pair_coeff 14    49   6.786192061888589311E-02 3.851089232029210496E+00
pair_coeff 15    49   1.411550573577402545E-01 3.468044538763741080E+00
pair_coeff 16    49   2.051467578661674285E-01 3.327838076089515873E+00
pair_coeff 17    49   2.476426393321955743E-01 3.310938448465757133E+00
pair_coeff 18   49   1.525143844607987631E-01 3.418424600390641999E+00
pair_coeff 19    49   1.561903225248004456E-01 3.324850221067261025E+00
pair_coeff 20     49   7.579804515254030817E-02 2.648215562927745292E+00
pair_coeff 21      49   0.000000000000000000E+00 0.000000000000000000E+00
pair_coeff 22    49   0.000000000000000000E+00 0.000000000000000000E+00
pair_coeff 23      49   3.041332416110918979E-01 3.126293772665116322E+00
pair_coeff 24   49   6.434602513106866262E-01 2.118167472197251655E+00
pair_coeff 25   49   6.434602513106866262E-01 2.118167472197251655E+00
pair_coeff 26     49   0.000000000000000000E+00 0.000000000000000000E+00
pair_coeff 27   49   4.741181493550025716E-01 2.228774610499382636E+00
pair_coeff 28   49   1.231816714918823885E-01 2.390062407746226469E+00
pair_coeff 29   49   1.568504861035088516E-01 2.883105903219756350E+00
pair_coeff 30     49   2.199056365125826029E-01 3.174198797669536276E+00
pair_coeff 31      49   1.487530701482332185E-01 2.947441901958409272E+00
pair_coeff 32     49   2.468521531134249269E-01 3.201992541656678348E+00
pair_coeff 33     49   3.764576148503470665E-01 3.284437915256962270E+00
pair_coeff 34   49   2.221921918165813414E-01 3.262068412762940017E+00
pair_coeff 35   49   1.633809098206280841E-01 3.063880240200058669E+00
pair_coeff 36    49   3.216989396118666994E-02 3.036865695947625898E+00
pair_coeff 37    49   1.814556892113898812E-01 3.478816702288478169E+00
pair_coeff 38   49   1.437349334849495619E-01 3.169641109400411327E+00
pair_coeff 39  49   2.466152308707815766E-01 3.188207296291331261E+00
pair_coeff 40   49   6.332752687886390730E-02 2.550905305106105025E+00
pair_coeff 41  49   2.509114869503538681E-01 3.243316502678857738E+00
pair_coeff 42  49   2.051467578661674285E-01 3.327838076089515873E+00
pair_coeff 43  49   2.223108962183115156E-01 2.911490578234520399E+00
pair_coeff 44   49   1.051108625600908064E-01 3.339354660419386889E+00
pair_coeff 45  49   2.344029680696937956E-01 3.191713688460029452E+00
pair_coeff 46   49   1.297424277832890105E-01 3.015383630983031082E+00
pair_coeff 47   49   1.403492298138912242E-01 3.151430023345263898E+00
pair_coeff 48  49   1.541460520799295686E-01 3.403342348080735658E+00
pair_coeff 49   49   2.030610329881481768E-01 2.954841833242532800E+00
pair_coeff 1      50  1.791876903161000734E-01 3.217141909372776443E+00
pair_coeff 2     50  2.080916157427709912E-01 3.137948534372799969E+00
pair_coeff 3     50  1.628979002873637005E-01 3.268654360233876233E+00
pair_coeff 4     50  1.628979002873637005E-01 3.268654360233876233E+00
pair_coeff 5     50  1.277518010205411225E-01 3.445417510233855118E+00
pair_coeff 6      50  1.267286703926965574E-01 3.429504033147082964E+00
pair_coeff 7     50  1.267286703926965574E-01 3.429504033147082964E+00
pair_coeff 8     50  1.267286703926965574E-01 3.429504033147082964E+00
pair_coeff 9     50  1.267286703926965574E-01 3.429504033147082964E+00
pair_coeff 10     50  1.267286703926965574E-01 3.429504033147082964E+00
pair_coeff 11     50  1.267286703926965574E-01 3.429504033147082964E+00
pair_coeff 12      50  8.344727382835046003E-02 3.664574520351796316E+00
pair_coeff 13    50  1.325137998303192385E-02 4.989740838251888633E+00
pair_coeff 14    50  4.880487047395847683E-02 4.338373993220113078E+00
pair_coeff 15    50  1.015157577071503781E-01 3.906862014301811126E+00
pair_coeff 16    50  1.475372470231036959E-01 3.748914993420465080E+00
pair_coeff 17    50  1.780993939784465407E-01 3.729877027650093879E+00
pair_coeff 18   50  1.096851475929681435E-01 3.850963582140682906E+00
pair_coeff 19    50  1.123288051765993917E-01 3.745549080105277095E+00
pair_coeff 20     50  5.451236484485043332E-02 2.983298707049888421E+00
pair_coeff 21      50  0.000000000000000000E+00 0.000000000000000000E+00
pair_coeff 22    50  0.000000000000000000E+00 0.000000000000000000E+00
pair_coeff 23      50  2.187262507204020268E-01 3.521868952215817750E+00
pair_coeff 24   50  4.627631215556714528E-01 2.386182744932990651E+00
pair_coeff 25   50  4.627631215556714528E-01 2.386182744932990651E+00
pair_coeff 26     50  0.000000000000000000E+00 0.000000000000000000E+00
pair_coeff 27   50  3.409758323607505748E-01 2.510785189426758102E+00
pair_coeff 28   50  8.858967543358814423E-02 2.692481001401170193E+00
pair_coeff 29   50  1.128035809810071233E-01 3.247910114935789849E+00
pair_coeff 30     50  1.581515231017961709E-01 3.575835480151661638E+00
pair_coeff 31      50  1.069800892014212690E-01 3.320386655192049563E+00
pair_coeff 32     50  1.775308928637313044E-01 3.607146013048481148E+00
pair_coeff 33     50  2.707404235563790063E-01 3.700023337654205324E+00
pair_coeff 34   50  1.597959657350944140E-01 3.674823384598274068E+00
pair_coeff 35   50  1.175001247974426788E-01 3.451558131105934013E+00
pair_coeff 36    50  2.313591324292333176E-02 3.421125391389411519E+00
pair_coeff 37    50  1.304991271682363063E-01 3.918997197692981160E+00
pair_coeff 38   50  1.033711505265553082E-01 3.570701099963447422E+00
pair_coeff 39  50  1.773605033542809684E-01 3.591616497532251984E+00
pair_coeff 40   50  4.554382956704794427E-02 2.873675619561858241E+00
pair_coeff 41  50  1.804502806487379984E-01 3.653698763970068875E+00
pair_coeff 42  50  1.475372470231036959E-01 3.748914993420465080E+00
pair_coeff 43  50  2.074919853073012854E-01 3.140447486228195473E+00
pair_coeff 44   50  7.559352853363882074E-02 3.761888790426231033E+00
pair_coeff 45  50  1.685776999976196511E-01 3.595566559366237147E+00
pair_coeff 46   50  9.330803380147963122E-02 3.396925164817679033E+00
pair_coeff 47   50  1.009362234330945657E-01 3.550185734733046772E+00
pair_coeff 48  50  1.108586087340911325E-01 3.833972947222050731E+00
pair_coeff 49   50  1.460372374214344571E-01 3.328722912157391800E+00
pair_coeff 50  50  1.050269192461420475E-01 3.749911789275832241E+00
pair_coeff 1      51  2.533852259367075921E-01 2.858274758416932571E+00
pair_coeff 2     51  2.942576076375654770E-01 2.787915280603157520E+00
pair_coeff 3     51  2.065079265987836976E-01 2.957409074764294044E+00
pair_coeff 4     51  2.303502053970068741E-01 2.904041075908715186E+00
pair_coeff 5     51  1.806509080412127821E-01 3.061086572842267373E+00
pair_coeff 6      51  1.404672559692889122E-01 3.173174020534739626E+00
pair_coeff 7     51  1.213012792659237393E-01 3.251712767470937848E+00
pair_coeff 8     51  8.895954313830781168E-02 3.424188379397632431E+00
pair_coeff 9     51  1.482497981251104935E-01 3.144783276351368784E+00
pair_coeff 10     51  1.270613958791100284E-01 3.226666915174094541E+00
pair_coeff 11     51  1.375644548126654931E-01 3.184236878323198461E+00
pair_coeff 12      51  1.180008866429317071E-01 3.255796961067685569E+00
pair_coeff 13    51  1.873847419457483343E-02 4.433143047705374151E+00
pair_coeff 14    51  6.901385418853510367E-02 3.854435156020554309E+00
pair_coeff 15    51  1.435511175872953848E-01 3.471057663811270455E+00
pair_coeff 16    51  2.086290559640636977E-01 3.330729386206531473E+00
pair_coeff 17    51  2.518462909076551459E-01 3.313815075757705841E+00
pair_coeff 18   51  1.551032654961799484E-01 3.421394614377313736E+00
pair_coeff 19    51  1.588416013882605060E-01 3.327738935260058373E+00
pair_coeff 20     51  7.708469180103937057E-02 2.650516399769581533E+00
pair_coeff 21      51  0.000000000000000000E+00 0.000000000000000000E+00
pair_coeff 22    51  0.000000000000000000E+00 0.000000000000000000E+00
pair_coeff 23      51  3.092958024031092212E-01 3.129009975979999414E+00
pair_coeff 24   51  2.082100572999197041E-01 2.565817813773293210E+00
pair_coeff 25   51  1.145129867819162373E-01 2.834655654012085524E+00
pair_coeff 26     51  0.000000000000000000E+00 0.000000000000000000E+00
pair_coeff 27   51  4.821661475142233755E-01 2.230711026404406550E+00
pair_coeff 28   51  1.252726394642434959E-01 2.392138954579879240E+00
pair_coeff 29   51  1.595129710245168642E-01 2.885610818746235928E+00
pair_coeff 30     51  2.236384616749672039E-01 3.176956622085050697E+00
pair_coeff 31      51  1.512781041220645495E-01 2.950002714232202727E+00
pair_coeff 32     51  2.510423864477937528E-01 3.204774513981840212E+00
pair_coeff 33     51  3.828478578635327034E-01 3.287291518213585562E+00
pair_coeff 34   51  2.259638304960239485E-01 3.264902580528488585E+00
pair_coeff 35   51  1.661542465158737936E-01 3.066542217055081565E+00
pair_coeff 36    51  3.271596722949368652E-02 3.039504201881492840E+00
pair_coeff 37    51  1.845358392852482765E-01 3.481839186464868341E+00
pair_coeff 38   51  1.461747862551426580E-01 3.172394973980771304E+00
pair_coeff 39  51  2.508014425287490301E-01 3.190977291645715308E+00
pair_coeff 40   51  6.440249062037527172E-02 2.553121596328082887E+00
pair_coeff 41  51  2.551706261287441935E-01 3.246134378309362578E+00
pair_coeff 42  51  2.086290559640636977E-01 3.330729386206531473E+00
pair_coeff 43  51  2.934096839152270930E-01 2.790135478285444393E+00
pair_coeff 44   51  1.068950845510619613E-01 3.342255976436936837E+00
pair_coeff 45  51  2.383818806215697028E-01 3.194486730256854035E+00
pair_coeff 46   51  1.319447624152647047E-01 3.018003472754054783E+00
pair_coeff 47   51  1.427316113884563031E-01 3.154168065672212862E+00
pair_coeff 48  51  1.567626301313670423E-01 3.406299258224103177E+00
pair_coeff 49   51  2.065079265987836976E-01 2.957409074764294044E+00
pair_coeff 50  51  1.485161710364928667E-01 3.331614991042423313E+00
pair_coeff 51  51  2.100133300839540085E-01 2.959978546770596353E+00
pair_coeff 1      52  2.017250681962091674E-01 3.056690580133286872E+00
pair_coeff 2     52  1.238182113317307792E-01 3.315741788485744745E+00
pair_coeff 3     52  1.857777726664354978E-01 3.098935224280011003E+00
pair_coeff 4     52  1.857777726664354978E-01 3.098935224280011003E+00
pair_coeff 5     52  1.625163928514463119E-01 3.207574185829374258E+00
pair_coeff 6      52  1.263665486179660624E-01 3.325025553250206656E+00
pair_coeff 7     52  1.091245350954258148E-01 3.407322754347013039E+00
pair_coeff 8     52  8.002940155303392422E-02 3.588052148088892501E+00
pair_coeff 9     52  1.333678457168430698E-01 3.295276176356722875E+00
pair_coeff 10     52  1.143064264267728281E-01 3.381078338392825344E+00
pair_coeff 11     52  1.237551431273730129E-01 3.336617821622679614E+00
pair_coeff 12      52  1.061554500800334505E-01 3.411602396114444158E+00
pair_coeff 13    52  1.685742555441499188E-02 4.645290116282322579E+00
pair_coeff 14    52  6.208594665318631356E-02 4.038888287934027765E+00
pair_coeff 15    52  1.291408389420262981E-01 3.637164351620559177E+00
pair_coeff 16    52  1.876859739423346884E-01 3.490120695691245611E+00
pair_coeff 17    52  2.265648769503596782E-01 3.472396954700678773E+00
pair_coeff 18   52  1.395333325541259217E-01 3.585124688068666021E+00
pair_coeff 19    52  1.428963982095136920E-01 3.486987137383879443E+00
pair_coeff 20     52  6.934659887074805240E-02 2.777356268994485955E+00
pair_coeff 21      52  0.000000000000000000E+00 0.000000000000000000E+00
pair_coeff 22    52  0.000000000000000000E+00 0.000000000000000000E+00
pair_coeff 23      52  2.782473593721414562E-01 3.278748048225554435E+00
pair_coeff 24   52  5.886930177039987333E-01 2.221460288218898071E+00
pair_coeff 25   52  5.886930177039987333E-01 2.221460288218898071E+00
pair_coeff 26     52  0.000000000000000000E+00 0.000000000000000000E+00
pair_coeff 27   52  4.337642356672424815E-01 2.337461203423603529E+00
pair_coeff 28   52  1.126972330748762380E-01 2.506614228980403869E+00
pair_coeff 29   52  1.435003728738950268E-01 3.023701078785963059E+00
pair_coeff 30     52  2.011886709474526580E-01 3.328989170351303706E+00
pair_coeff 31      52  9.673967369602196054E-02 3.272112746045770404E+00
pair_coeff 32     52  2.258416718780438259E-01 3.358138281240213630E+00
pair_coeff 33     52  3.444159431332070587E-01 3.444604118245261581E+00
pair_coeff 34   52  2.032806092440548607E-01 3.421143762957048029E+00
pair_coeff 35   52  1.494749685650599014E-01 3.213290908675224156E+00
pair_coeff 36    52  2.943179771656875832E-02 3.184958995335595677E+00
pair_coeff 37    52  1.660113379868037031E-01 3.648461821628244284E+00
pair_coeff 38   52  1.315011324637096746E-01 3.324209225597718920E+00
pair_coeff 39  52  2.256249149459740866E-01 3.343680795916493587E+00
pair_coeff 40   52  5.793749159503105983E-02 2.675300659027595618E+00
pair_coeff 41  52  2.295555011028669046E-01 3.401477412620344865E+00
pair_coeff 42  52  1.876859739423346884E-01 3.490120695691245611E+00
pair_coeff 43  52  2.033892102840210714E-01 3.053469937559857073E+00
pair_coeff 44   52  9.616449617195252375E-02 3.502198888317909375E+00
pair_coeff 45  52  2.144520820837692021E-01 3.347358177927088452E+00
pair_coeff 46   52  1.186995796250189389E-01 3.162429353626820649E+00
pair_coeff 47   52  1.284035983003997405E-01 3.305110072670552235E+00
pair_coeff 48  52  1.410261230297450152E-01 3.569306947024517562E+00
pair_coeff 49   52  1.857777726664354978E-01 3.098935224280011003E+00
pair_coeff 50  52  1.336074789696210519E-01 3.491048680948393823E+00
pair_coeff 51  52  1.889312886718397255E-01 3.101627657794223669E+00
pair_coeff 52  52  1.699655532576562489E-01 3.250055355330133011E+00
pair_coeff 1      53   2.517150719017874350E-01 3.216286733597559344E+00
pair_coeff 2     53   8.204532982457217460E-02 3.877013547662570669E+00
pair_coeff 3     53   2.288318835470794788E-01 3.267785491497223305E+00
pair_coeff 4     53   2.288318835470794788E-01 3.267785491497223305E+00
pair_coeff 5     53   1.794601723072659361E-01 3.444501654585188533E+00
pair_coeff 6      53   1.780229229119614787E-01 3.428592407594721170E+00
pair_coeff 7     53   1.780229229119614787E-01 3.428592407594721170E+00
pair_coeff 8     53   1.780229229119614787E-01 3.428592407594721170E+00
pair_coeff 9     53   1.780229229119614787E-01 3.428592407594721170E+00
pair_coeff 10     53   1.780229229119614787E-01 3.428592407594721170E+00
pair_coeff 11     53   1.780229229119614787E-01 3.428592407594721170E+00
pair_coeff 12      53   1.172230999498745652E-01 3.663600408719620116E+00
pair_coeff 13    53   1.861496210673063006E-02 4.988414472922134912E+00
pair_coeff 14    53   6.855895881485152277E-02 4.337220773235620719E+00
pair_coeff 15    53   1.426049200441300291E-01 3.905823498176049124E+00
pair_coeff 16    53   2.072539060975635561E-01 3.747918462531858008E+00
pair_coeff 17    53   2.501862805523388245E-01 3.728885557404626905E+00
pair_coeff 18   53   1.540809235512614617E-01 3.849939924851243589E+00
pair_coeff 19    53   1.577946187139902257E-01 3.744553443938634096E+00
pair_coeff 20     53   7.657659860592054557E-02 2.982505691119483604E+00
pair_coeff 21      53   0.000000000000000000E+00 0.000000000000000000E+00
pair_coeff 22    53   0.000000000000000000E+00 0.000000000000000000E+00
pair_coeff 23      53   3.072571214561132247E-01 3.520932774360979955E+00
pair_coeff 24   53   6.500695009260647472E-01 2.385548453460561547E+00
pair_coeff 25   53   6.500695009260647472E-01 2.385548453460561547E+00
pair_coeff 26     53   0.000000000000000000E+00 0.000000000000000000E+00
pair_coeff 27   53   4.789880153488779158E-01 2.510117776321816319E+00
pair_coeff 28   53   1.244469220077783211E-01 2.691765290191502125E+00
pair_coeff 29   53   1.584615631091823018E-01 3.247046760402909182E+00
pair_coeff 30     53   2.221643793651205678E-01 3.574884956996347896E+00
pair_coeff 31      53   1.502809752047785663E-01 3.319504035055336644E+00
pair_coeff 32     53   2.493876749186909880E-01 3.606187166974876845E+00
pair_coeff 33     53   3.803243686103310317E-01 3.699039803071263677E+00
pair_coeff 34   53   2.244744208358758208E-01 3.673846548628572073E+00
pair_coeff 35   53   1.650590635421556873E-01 3.450640643166755339E+00
pair_coeff 36    53   3.250032440946476475E-02 3.420215993034873669E+00
pair_coeff 37    53   1.833194965587523484E-01 3.917955455811204413E+00
pair_coeff 38   53   1.452112951590650569E-01 3.569751941621275737E+00
pair_coeff 39  53   2.491483191485096838E-01 3.590661779490871286E+00
pair_coeff 40   53   6.397799041847561374E-02 2.872911743474042101E+00
pair_coeff 41  53   2.534887038728330655E-01 3.652727543314932213E+00
pair_coeff 42  53   2.072539060975635561E-01 3.747918462531858008E+00
pair_coeff 43  53   2.914757141438480414E-01 3.139612697248032713E+00
pair_coeff 44   53   1.061905002323981356E-01 3.760888810862612175E+00
pair_coeff 45  53   2.368106190837268310E-01 3.594610791325419719E+00
pair_coeff 46   53   1.310750665736078457E-01 3.396022199330606561E+00
pair_coeff 47   53   1.417908155082314992E-01 3.549242029754096084E+00
pair_coeff 48  53   1.557293507115795339E-01 3.832953806357374926E+00
pair_coeff 49   53   2.051467578661674285E-01 3.327838076089515873E+00
pair_coeff 50  53   1.475372470231036959E-01 3.748914993420465080E+00
pair_coeff 51  53   2.086290559640636977E-01 3.330729386206531473E+00
pair_coeff 52  53   1.876859739423346884E-01 3.490120695691245611E+00
pair_coeff 53   53   2.072539060975635561E-01 3.747918462531858008E+00
pair_coeff 1      54      5.058019451083491935E-01 3.259627155281799471E+00
pair_coeff 2     54      5.873904832288343592E-01 3.179387960698472515E+00
pair_coeff 3     54      4.598199500984992416E-01 3.311819874282714959E+00
pair_coeff 4     54      4.598199500984992416E-01 3.311819874282714959E+00
pair_coeff 5     54      3.606113195236524960E-01 3.490917340301991079E+00
pair_coeff 6      54      3.577232781590320432E-01 3.474793711469867041E+00
pair_coeff 7     54      3.577232781590320432E-01 3.474793711469867041E+00
pair_coeff 8     54      3.577232781590320432E-01 3.474793711469867041E+00
pair_coeff 9     54      3.577232781590320432E-01 3.474793711469867041E+00
pair_coeff 10     54      3.577232781590320432E-01 3.474793711469867041E+00
pair_coeff 11     54      3.577232781590320432E-01 3.474793711469867041E+00
pair_coeff 12      54      2.355507420287134279E-01 3.712968515405449921E+00
pair_coeff 13    54      3.740532488009395973E-02 5.055634843709905013E+00
pair_coeff 14    54      1.377639187878478000E-01 4.395666114966524596E+00
pair_coeff 15    54      2.865535440344418872E-01 3.958455633136796159E+00
pair_coeff 16    54      4.164606753319582411E-01 3.798422780106363472E+00
pair_coeff 17    54      5.027299572755441481E-01 3.779133400913722962E+00
pair_coeff 18   54      3.096136844230243934E-01 3.901819012016897847E+00
pair_coeff 19    54      3.170760672777966915E-01 3.795012416885348738E+00
pair_coeff 20     54      1.538747450918169224E-01 3.022695843626246770E+00
pair_coeff 21      54      0.000000000000000000E+00 0.000000000000000000E+00
pair_coeff 22    54      0.000000000000000000E+00 0.000000000000000000E+00
pair_coeff 23      54      6.174093927181751873E-01 3.568378392181247971E+00
pair_coeff 24   54      1.306264323148313311E+00 2.417694429390239375E+00
pair_coeff 25   54      1.306264323148313311E+00 2.417694429390239375E+00
pair_coeff 26     54      0.000000000000000000E+00 0.000000000000000000E+00
pair_coeff 27   54      9.624893257944396874E-01 2.543942360979170036E+00
pair_coeff 28   54      2.500664530681778186E-01 2.728037629200720460E+00
pair_coeff 29   54      3.184162403942434882E-01 3.290801682610015710E+00
pair_coeff 30     54      4.464221167515604050E-01 3.623057596546916947E+00
pair_coeff 31      54      3.019779824746237074E-01 3.364235340619288195E+00
pair_coeff 32     54      5.011252210957767295E-01 3.654781613128054829E+00
pair_coeff 33     54      7.642323678189105740E-01 3.748885466151363310E+00
pair_coeff 34   54      4.510639662060295652E-01 3.723352725101418237E+00
pair_coeff 35   54      3.316734066284257043E-01 3.497139053583150137E+00
pair_coeff 36    54      6.530688519666234815E-02 3.466304422228967397E+00
pair_coeff 37    54      3.683663327553086675E-01 3.970751072514505431E+00
pair_coeff 38   54      2.917908529999159173E-01 3.617855412260831294E+00
pair_coeff 39  54      5.006442542104175830E-01 3.639047016423571534E+00
pair_coeff 40   54      1.285588175284727575E-01 2.911625084894475357E+00
pair_coeff 41  54      5.093659212107068956E-01 3.701949134901025840E+00
pair_coeff 42  54      4.164606753319582411E-01 3.798422780106363472E+00
pair_coeff 43  54      5.856978767776226391E-01 3.181919913455625970E+00
pair_coeff 44   54      2.133815872199037178E-01 3.811567907744004557E+00
pair_coeff 45  54      4.758526013158087542E-01 3.643049242368777918E+00
pair_coeff 46   54      2.633851963143667985E-01 3.441784609948579376E+00
pair_coeff 47   54      2.849176640107791147E-01 3.597069123222504494E+00
pair_coeff 48  54      3.129260711536197559E-01 3.884604000517125399E+00
pair_coeff 49   54      4.122265241306839467E-01 3.372681685338640545E+00
pair_coeff 50  54      2.964646731576463523E-01 3.799432739545504756E+00
pair_coeff 51  54      4.192239325022028562E-01 3.375611956720639295E+00
pair_coeff 52  54      3.771404309338606820E-01 3.537151111574271312E+00
pair_coeff 53   54      4.164606753319582411E-01 3.798422780106363472E+00
pair_coeff 54      54      8.368454779149256950E-01 3.849607658402551813E+00
pair_coeff 1      55  3.175870057215742226E-01 3.004156156701421221E+00
pair_coeff 2     55  3.688154752311860185E-01 2.930205652875953248E+00
pair_coeff 3     55  2.887154597468856720E-01 3.052258307853131569E+00
pair_coeff 4     55  2.887154597468856720E-01 3.052258307853131569E+00
pair_coeff 5     55  2.264235444414708642E-01 3.217319135230157112E+00
pair_coeff 6      55  2.246101777309229275E-01 3.202459184531222913E+00
pair_coeff 7     55  2.246101777309229275E-01 3.202459184531222913E+00
pair_coeff 8     55  2.246101777309229275E-01 3.202459184531222913E+00
pair_coeff 9     55  2.246101777309229275E-01 3.202459184531222913E+00
pair_coeff 10     55  2.246101777309229275E-01 3.202459184531222913E+00
pair_coeff 11     55  2.246101777309229275E-01 3.202459184531222913E+00
pair_coeff 12      55  1.478995001499436579E-01 3.421967204782814687E+00
pair_coeff 13    55  2.348635714353968298E-02 4.659402998639063931E+00
pair_coeff 14    55  8.650032070345334279E-02 4.051158857442665351E+00
pair_coeff 15    55  1.799235509252720133E-01 3.648214441350505322E+00
pair_coeff 16    55  2.614906885166861650E-01 3.500724051252714020E+00
pair_coeff 17    55  3.156581412186418856E-01 3.482946463663709302E+00
pair_coeff 18   55  1.944027379041995962E-01 3.596016675800414841E+00
pair_coeff 19    55  1.990882790519060419E-01 3.497580972864009485E+00
pair_coeff 20     55  9.661611629313200666E-02 2.785794170892084587E+00
pair_coeff 21      55  0.000000000000000000E+00 0.000000000000000000E+00
pair_coeff 22    55  0.000000000000000000E+00 0.000000000000000000E+00
pair_coeff 23      55  3.876639902911756530E-01 3.288709231343011297E+00
pair_coeff 24   55  8.201877811694162634E-01 2.228209319371530661E+00
pair_coeff 25   55  8.201877811694162634E-01 2.228209319371530661E+00
pair_coeff 26     55  0.000000000000000000E+00 0.000000000000000000E+00
pair_coeff 27   55  6.043355625145997445E-01 2.344562657617333290E+00
pair_coeff 28   55  1.570137418991634226E-01 2.514229587944387223E+00
pair_coeff 29   55  1.999297577597621556E-01 3.032887402253098053E+00
pair_coeff 30     55  2.803031200614393148E-01 3.339102991308009027E+00
pair_coeff 31      55  1.896083717657784939E-01 3.100565748673854038E+00
pair_coeff 32     55  3.146505465202936724E-01 3.368340660276711862E+00
pair_coeff 33     55  4.798523843539687084E-01 3.455069189633579008E+00
pair_coeff 34   55  2.832176819438365079E-01 3.431537559306359508E+00
pair_coeff 35   55  2.082537742436552652E-01 3.223053226084240830E+00
pair_coeff 36    55  4.100541392375962879E-02 3.194635237397348781E+00
pair_coeff 37    55  2.312928247109353463E-01 3.659546234266159548E+00
pair_coeff 38   55  1.832119947291552531E-01 3.334308524577047184E+00
pair_coeff 39  55  3.143485531522378085E-01 3.353839251584496139E+00
pair_coeff 40   55  8.072054746493292909E-02 2.683428505195357694E+00
pair_coeff 41  55  3.198247837881820765E-01 3.411811460518701100E+00
pair_coeff 42  55  2.614906885166861650E-01 3.500724051252714020E+00
pair_coeff 43  55  3.677527078379324021E-01 2.932539165606559806E+00
pair_coeff 44   55  1.339797523846405214E-01 3.512838938705180603E+00
pair_coeff 45  55  2.987821701324951396E-01 3.357527805870319515E+00
pair_coeff 46   55  1.653764218541119713E-01 3.172037148255793415E+00
pair_coeff 47   55  1.788964013789737795E-01 3.315151346404604737E+00
pair_coeff 48  55  1.964825460064327234E-01 3.580150878787119240E+00
pair_coeff 49   55  2.588321155025055109E-01 3.108350117033022997E+00
pair_coeff 50  55  1.861466306346315491E-01 3.501654855827156965E+00
pair_coeff 51  55  2.632257047206049139E-01 3.111050730444828272E+00
pair_coeff 52  55  2.368019762580622356E-01 3.259929367013902457E+00
pair_coeff 53   55  2.614906885166861650E-01 3.500724051252714020E+00
pair_coeff 54      55  5.254452897086219210E-01 3.547897350510067938E+00
pair_coeff 55  55  3.299208273968177729E-01 3.269833376988799500E+00
pair_coeff 1      56      1.423703976828447626E-01 3.143928959384971744E+00
pair_coeff 2     56      1.653354984123153737E-01 3.066537799135407028E+00
pair_coeff 3     56      1.294276342571315797E-01 3.194269134171567437E+00
pair_coeff 4     56      1.294276342571315797E-01 3.194269134171567437E+00
pair_coeff 5     56      1.015029251390483361E-01 3.367009660356621747E+00
pair_coeff 6      56      1.006900148654086141E-01 3.351458328501519368E+00
pair_coeff 7     56      1.006900148654086141E-01 3.351458328501519368E+00
pair_coeff 8     56      1.006900148654086141E-01 3.351458328501519368E+00
pair_coeff 9     56      1.006900148654086141E-01 3.351458328501519368E+00
pair_coeff 10     56      1.006900148654086141E-01 3.351458328501519368E+00
pair_coeff 11     56      1.006900148654086141E-01 3.351458328501519368E+00
pair_coeff 12      56      6.630154972997068241E-02 3.581179283634555510E+00
pair_coeff 13    56      1.052864867392752299E-02 4.876188605638604123E+00
pair_coeff 14    56      3.877704325548127218E-02 4.239645007324696735E+00
pair_coeff 15    56      8.065754277175206377E-02 3.817953007077415251E+00
pair_coeff 16    56      1.172230999498745652E-01 3.663600408719620116E+00
pair_coeff 17    56      1.415057111515590771E-01 3.644995692608442361E+00
pair_coeff 18   56      8.714838644978782634E-02 3.763326663382849269E+00
pair_coeff 19    56      8.924885764206048899E-02 3.660311093966183371E+00
pair_coeff 20     56      4.331183156556572822E-02 2.915407359639444529E+00
pair_coeff 21      56      0.000000000000000000E+00 0.000000000000000000E+00
pair_coeff 22    56      0.000000000000000000E+00 0.000000000000000000E+00
pair_coeff 23      56      1.737850588051431666E-01 3.441721286142719993E+00
pair_coeff 24   56      3.676802214070164498E-01 2.331880049283297840E+00
pair_coeff 25   56      3.676802214070164498E-01 2.331880049283297840E+00
pair_coeff 26     56      0.000000000000000000E+00 0.000000000000000000E+00
pair_coeff 27   56      2.709162932331031781E-01 2.453646898458591963E+00
pair_coeff 28   56      7.038735361689542336E-02 2.631207833337182223E+00
pair_coeff 29   56      8.962608232733035307E-02 3.173996968575379718E+00
pair_coeff 30     56      1.256564845410435005E-01 3.494459690227617266E+00
pair_coeff 31      56      8.499913033581890653E-02 3.244824150032262100E+00
pair_coeff 32     56      1.410540186851716171E-01 3.525057684932574986E+00
pair_coeff 33     56      2.151119962679723108E-01 3.615821387226038297E+00
pair_coeff 34   56      1.269630472365963769E-01 3.591194913038851411E+00
pair_coeff 35   56      9.335763782481623640E-02 3.373010538257620983E+00
pair_coeff 36    56      1.838222906573640236E-02 3.343270360670348218E+00
pair_coeff 37    56      1.036857643481583074E-01 3.829812028396864854E+00
pair_coeff 38   56      8.213171219204309925E-02 3.489442153850004225E+00
pair_coeff 39  56      1.409186387258750672E-01 3.509881576780662371E+00
pair_coeff 40   56      3.618604110595938922E-02 2.808278980140014092E+00
pair_coeff 41  56      1.433735664130799115E-01 3.570551028367321855E+00
pair_coeff 42  56      1.172230999498745652E-01 3.663600408719620116E+00
pair_coeff 43  56      1.648590726968548470E-01 3.068979881992677683E+00
pair_coeff 44   56      6.006149585721085732E-02 3.676278959205930619E+00
pair_coeff 45  56      1.339404182663543053E-01 3.513741746503062924E+00
pair_coeff 46   56      7.413624147890124361E-02 3.319620862051439580E+00
pair_coeff 47   56      8.019708410451541203E-02 3.469393659665676477E+00
pair_coeff 48  56      8.808073916348332921E-02 3.746722686727856910E+00
pair_coeff 49   56      1.160312939550487005E-01 3.252970697627771912E+00
pair_coeff 50  56      8.344727382835046003E-02 3.664574520351796316E+00
pair_coeff 51  56      1.180008866429317071E-01 3.255796961067685569E+00
pair_coeff 52  56      1.061554500800334505E-01 3.411602396114444158E+00
pair_coeff 53   56      1.172230999498745652E-01 3.663600408719620116E+00
pair_coeff 54      56      2.355507420287134279E-01 3.712968515405449921E+00
pair_coeff 55  56      1.478995001499436579E-01 3.421967204782814687E+00
pair_coeff 56      56      6.630154972997068241E-02 3.581179283634555510E+00
pair_coeff 1      57     3.731714874568097806E-01 3.021498329079459921E+00
pair_coeff 2     57     4.333660288663451210E-01 2.947120929208018492E+00
pair_coeff 3     57     3.392468067789179420E-01 3.069878160802191225E+00
pair_coeff 4     57     3.392468067789179420E-01 3.069878160802191225E+00
pair_coeff 5     57     2.660524812168876263E-01 3.235891839220214727E+00
pair_coeff 6      57     2.639217367579247409E-01 3.220946106087509531E+00
pair_coeff 7     57     2.639217367579247409E-01 3.220946106087509531E+00
pair_coeff 8     57     2.639217367579247409E-01 3.220946106087509531E+00
pair_coeff 9     57     2.639217367579247409E-01 3.220946106087509531E+00
pair_coeff 10     57     2.639217367579247409E-01 3.220946106087509531E+00
pair_coeff 11     57     2.639217367579247409E-01 3.220946106087509531E+00
pair_coeff 12      57     1.737850588051431666E-01 3.441721286142719993E+00
pair_coeff 13    57     2.759696924716207450E-02 4.686300458613273712E+00
pair_coeff 14    57     1.016397168676915763E-01 4.074545090238809841E+00
pair_coeff 15    57     2.114139996840987690E-01 3.669274586167817986E+00
pair_coeff 16    57     3.072571214561132247E-01 3.520932774360979955E+00
pair_coeff 17    57     3.709050306349177539E-01 3.503052561617904459E+00
pair_coeff 18   57     2.284273523866607036E-01 3.616775497184223198E+00
pair_coeff 19    57     2.339329629063890137E-01 3.517771551839822930E+00
pair_coeff 20     57     1.135259918695059600E-01 2.801875799210098883E+00
pair_coeff 21      57     0.000000000000000000E+00 0.000000000000000000E+00
pair_coeff 22    57     0.000000000000000000E+00 0.000000000000000000E+00
pair_coeff 23      57     4.555134350088204109E-01 3.307694050845144673E+00
pair_coeff 24   57     9.637380899683938296E-01 2.241072162744267793E+00
pair_coeff 25   57     9.637380899683938296E-01 2.241072162744267793E+00
pair_coeff 26     57     0.000000000000000000E+00 0.000000000000000000E+00
pair_coeff 27   57     7.101071414248384395E-01 2.358097177009347067E+00
pair_coeff 28   57     1.844944867392919463E-01 2.528743548150760745E+00
pair_coeff 29   57     2.349217182881164212E-01 3.050395432258705242E+00
pair_coeff 30     57     3.293621287006147091E-01 3.358378720212484847E+00
pair_coeff 31      57     2.227938701879095817E-01 3.118464467275081642E+00
pair_coeff 32     57     3.697210854307304562E-01 3.387785170252723521E+00
pair_coeff 33     57     5.638367590708479593E-01 3.475014359704387434E+00
pair_coeff 34   57     3.327868009112045500E-01 3.451346887707100741E+00
pair_coeff 35   57     2.447026147257768958E-01 3.241659031413521852E+00
pair_coeff 36    57     4.818223363057468761E-02 3.213076993445320717E+00
pair_coeff 37    57     2.717739891131936147E-01 3.680671794426697563E+00
pair_coeff 38   57     2.152779911056781903E-01 3.353556576335538608E+00
pair_coeff 39  57     3.693662367992399664E-01 3.373200048891741964E+00
pair_coeff 40   57     9.484836036467202136E-02 2.698919204504523606E+00
pair_coeff 41  57     3.758009242872520916E-01 3.431506915542800851E+00
pair_coeff 42  57     3.072571214561132247E-01 3.520932774360979955E+00
pair_coeff 43  57     4.321172545720066149E-01 2.949467912669808012E+00
pair_coeff 44   57     1.574290590790217992E-01 3.533117597747393646E+00
pair_coeff 45  57     3.510754056218069463E-01 3.376909896193278637E+00
pair_coeff 46   57     1.943208135778947410E-01 3.190348451711801925E+00
pair_coeff 47   57     2.102070771175983122E-01 3.334288809009665400E+00
pair_coeff 48  57     2.308711711486143847E-01 3.600818111261308019E+00
pair_coeff 49   57     3.041332416110918979E-01 3.126293772665116322E+00
pair_coeff 50  57     2.187262507204020268E-01 3.521868952215817750E+00
pair_coeff 51  57     3.092958024031092212E-01 3.129009975979999414E+00
pair_coeff 52  57     2.782473593721414562E-01 3.278748048225554435E+00
pair_coeff 53   57     3.072571214561132247E-01 3.520932774360979955E+00
pair_coeff 54      57     6.174093927181751873E-01 3.568378392181247971E+00
pair_coeff 55  57     3.876639902911756530E-01 3.288709231343011297E+00
pair_coeff 56      57     1.737850588051431666E-01 3.441721286142719993E+00
pair_coeff 57     57     4.555134350088204109E-01 3.307694050845144673E+00
pair_coeff 1      58   0.000000000000000000E+00 0.000000000000000000E+00
pair_coeff 2     58   0.000000000000000000E+00 0.000000000000000000E+00
pair_coeff 3     58   0.000000000000000000E+00 0.000000000000000000E+00
pair_coeff 4     58   0.000000000000000000E+00 0.000000000000000000E+00
pair_coeff 5     58   0.000000000000000000E+00 0.000000000000000000E+00
pair_coeff 6      58   0.000000000000000000E+00 0.000000000000000000E+00
pair_coeff 7     58   0.000000000000000000E+00 0.000000000000000000E+00
pair_coeff 8     58   0.000000000000000000E+00 0.000000000000000000E+00
pair_coeff 9     58   0.000000000000000000E+00 0.000000000000000000E+00
pair_coeff 10     58   0.000000000000000000E+00 0.000000000000000000E+00
pair_coeff 11     58   0.000000000000000000E+00 0.000000000000000000E+00
pair_coeff 12      58   0.000000000000000000E+00 0.000000000000000000E+00
pair_coeff 13    58   0.000000000000000000E+00 0.000000000000000000E+00
pair_coeff 14    58   0.000000000000000000E+00 0.000000000000000000E+00
pair_coeff 15    58   0.000000000000000000E+00 0.000000000000000000E+00
pair_coeff 16    58   0.000000000000000000E+00 0.000000000000000000E+00
pair_coeff 17    58   0.000000000000000000E+00 0.000000000000000000E+00
pair_coeff 18   58   0.000000000000000000E+00 0.000000000000000000E+00
pair_coeff 19    58   0.000000000000000000E+00 0.000000000000000000E+00
pair_coeff 20     58   0.000000000000000000E+00 0.000000000000000000E+00
pair_coeff 21      58   0.000000000000000000E+00 0.000000000000000000E+00
pair_coeff 22    58   0.000000000000000000E+00 0.000000000000000000E+00
pair_coeff 23      58   0.000000000000000000E+00 0.000000000000000000E+00
pair_coeff 24   58   0.000000000000000000E+00 0.000000000000000000E+00
pair_coeff 25   58   0.000000000000000000E+00 0.000000000000000000E+00
pair_coeff 26     58   0.000000000000000000E+00 0.000000000000000000E+00
pair_coeff 27   58   0.000000000000000000E+00 0.000000000000000000E+00
pair_coeff 28   58   0.000000000000000000E+00 0.000000000000000000E+00
pair_coeff 29   58   0.000000000000000000E+00 0.000000000000000000E+00
pair_coeff 30     58   0.000000000000000000E+00 0.000000000000000000E+00
pair_coeff 31      58   0.000000000000000000E+00 0.000000000000000000E+00
pair_coeff 32     58   0.000000000000000000E+00 0.000000000000000000E+00
pair_coeff 33     58   0.000000000000000000E+00 0.000000000000000000E+00
pair_coeff 34   58   0.000000000000000000E+00 0.000000000000000000E+00
pair_coeff 35   58   0.000000000000000000E+00 0.000000000000000000E+00
pair_coeff 36    58   0.000000000000000000E+00 0.000000000000000000E+00
pair_coeff 37    58   0.000000000000000000E+00 0.000000000000000000E+00
pair_coeff 38   58   0.000000000000000000E+00 0.000000000000000000E+00
pair_coeff 39  58   0.000000000000000000E+00 0.000000000000000000E+00
pair_coeff 40   58   0.000000000000000000E+00 0.000000000000000000E+00
pair_coeff 41  58   0.000000000000000000E+00 0.000000000000000000E+00
pair_coeff 42  58   0.000000000000000000E+00 0.000000000000000000E+00
pair_coeff 43  58   0.000000000000000000E+00 0.000000000000000000E+00
pair_coeff 44   58   0.000000000000000000E+00 0.000000000000000000E+00
pair_coeff 45  58   0.000000000000000000E+00 0.000000000000000000E+00
pair_coeff 46   58   0.000000000000000000E+00 0.000000000000000000E+00
pair_coeff 47   58   0.000000000000000000E+00 0.000000000000000000E+00
pair_coeff 48  58   0.000000000000000000E+00 0.000000000000000000E+00
pair_coeff 49   58   0.000000000000000000E+00 0.000000000000000000E+00
pair_coeff 50  58   0.000000000000000000E+00 0.000000000000000000E+00
pair_coeff 51  58   0.000000000000000000E+00 0.000000000000000000E+00
pair_coeff 52  58   0.000000000000000000E+00 0.000000000000000000E+00
pair_coeff 53   58   0.000000000000000000E+00 0.000000000000000000E+00
pair_coeff 54      58   0.000000000000000000E+00 0.000000000000000000E+00
pair_coeff 55  58   0.000000000000000000E+00 0.000000000000000000E+00
pair_coeff 56      58   0.000000000000000000E+00 0.000000000000000000E+00
pair_coeff 57     58   0.000000000000000000E+00 0.000000000000000000E+00
pair_coeff 58   58   0.000000000000000000E+00 0.000000000000000000E+00
pair_coeff 1      59  3.175870057215742226E-01 3.004156156701421221E+00
pair_coeff 2     59  3.688154752311860185E-01 2.930205652875953248E+00
pair_coeff 3     59  2.887154597468856720E-01 3.052258307853131569E+00
pair_coeff 4     59  2.887154597468856720E-01 3.052258307853131569E+00
pair_coeff 5     59  2.264235444414708642E-01 3.217319135230157112E+00
pair_coeff 6      59  2.246101777309229275E-01 3.202459184531222913E+00
pair_coeff 7     59  2.246101777309229275E-01 3.202459184531222913E+00
pair_coeff 8     59  2.246101777309229275E-01 3.202459184531222913E+00
pair_coeff 9     59  2.246101777309229275E-01 3.202459184531222913E+00
pair_coeff 10     59  2.246101777309229275E-01 3.202459184531222913E+00
pair_coeff 11     59  2.246101777309229275E-01 3.202459184531222913E+00
pair_coeff 12      59  1.478995001499436579E-01 3.421967204782814687E+00
pair_coeff 13    59  2.348635714353968298E-02 4.659402998639063931E+00
pair_coeff 14    59  8.650032070345334279E-02 4.051158857442665351E+00
pair_coeff 15    59  1.799235509252720133E-01 3.648214441350505322E+00
pair_coeff 16    59  2.614906885166861650E-01 3.500724051252714020E+00
pair_coeff 17    59  3.156581412186418856E-01 3.482946463663709302E+00
pair_coeff 18   59  1.944027379041995962E-01 3.596016675800414841E+00
pair_coeff 19    59  1.990882790519060419E-01 3.497580972864009485E+00
pair_coeff 20     59  9.661611629313200666E-02 2.785794170892084587E+00
pair_coeff 21      59  0.000000000000000000E+00 0.000000000000000000E+00
pair_coeff 22    59  0.000000000000000000E+00 0.000000000000000000E+00
pair_coeff 23      59  3.876639902911756530E-01 3.288709231343011297E+00
pair_coeff 24   59  8.201877811694162634E-01 2.228209319371530661E+00
pair_coeff 25   59  8.201877811694162634E-01 2.228209319371530661E+00
pair_coeff 26     59  0.000000000000000000E+00 0.000000000000000000E+00
pair_coeff 27   59  6.043355625145997445E-01 2.344562657617333290E+00
pair_coeff 28   59  1.570137418991634226E-01 2.514229587944387223E+00
pair_coeff 29   59  1.999297577597621556E-01 3.032887402253098053E+00
pair_coeff 30     59  2.803031200614393148E-01 3.339102991308009027E+00
pair_coeff 31      59  1.896083717657784939E-01 3.100565748673854038E+00
pair_coeff 32     59  3.146505465202936724E-01 3.368340660276711862E+00
pair_coeff 33     59  4.798523843539687084E-01 3.455069189633579008E+00
pair_coeff 34   59  2.832176819438365079E-01 3.431537559306359508E+00
pair_coeff 35   59  2.082537742436552652E-01 3.223053226084240830E+00
pair_coeff 36    59  4.100541392375962879E-02 3.194635237397348781E+00
pair_coeff 37    59  2.312928247109353463E-01 3.659546234266159548E+00
pair_coeff 38   59  1.832119947291552531E-01 3.334308524577047184E+00
pair_coeff 39  59  3.143485531522378085E-01 3.353839251584496139E+00
pair_coeff 40   59  8.072054746493292909E-02 2.683428505195357694E+00
pair_coeff 41  59  3.198247837881820765E-01 3.411811460518701100E+00
pair_coeff 42  59  2.614906885166861650E-01 3.500724051252714020E+00
pair_coeff 43  59  3.677527078379324021E-01 2.932539165606559806E+00
pair_coeff 44   59  1.339797523846405214E-01 3.512838938705180603E+00
pair_coeff 45  59  2.987821701324951396E-01 3.357527805870319515E+00
pair_coeff 46   59  1.653764218541119713E-01 3.172037148255793415E+00
pair_coeff 47   59  1.788964013789737795E-01 3.315151346404604737E+00
pair_coeff 48  59  1.964825460064327234E-01 3.580150878787119240E+00
pair_coeff 49   59  2.588321155025055109E-01 3.108350117033022997E+00
pair_coeff 50  59  1.861466306346315491E-01 3.501654855827156965E+00
pair_coeff 51  59  2.632257047206049139E-01 3.111050730444828272E+00
pair_coeff 52  59  2.368019762580622356E-01 3.259929367013902457E+00
pair_coeff 53   59  2.614906885166861650E-01 3.500724051252714020E+00
pair_coeff 54      59  5.254452897086219210E-01 3.547897350510067938E+00
pair_coeff 55  59  3.299208273968177729E-01 3.269833376988799500E+00
pair_coeff 56      59  1.478995001499436579E-01 3.421967204782814687E+00
pair_coeff 57     59  3.876639902911756530E-01 3.288709231343011297E+00
pair_coeff 58   59  0.000000000000000000E+00 0.000000000000000000E+00
pair_coeff 59  59  3.299208273968177729E-01 3.269833376988799500E+00
pair_coeff 1      60  4.213927930353735807E-01 3.280869740545562685E+00
pair_coeff 2     60  4.893656869531686771E-01 3.200107637098358104E+00
pair_coeff 3     60  3.830843573048849926E-01 3.333402593012885884E+00
pair_coeff 4     60  3.830843573048849926E-01 3.333402593012885884E+00
pair_coeff 5     60  3.004318441315838584E-01 3.513667214970925379E+00
pair_coeff 6      60  2.980257643827635139E-01 3.497438510452560934E+00
pair_coeff 7     60  2.980257643827635139E-01 3.497438510452560934E+00
pair_coeff 8     60  2.980257643827635139E-01 3.497438510452560934E+00
pair_coeff 9     60  2.980257643827635139E-01 3.497438510452560934E+00
pair_coeff 10     60  2.980257643827635139E-01 3.497438510452560934E+00
pair_coeff 11     60  2.980257643827635139E-01 3.497438510452560934E+00
pair_coeff 12      60  1.962416041396830291E-01 3.737165469999586431E+00
pair_coeff 13    60  3.116305597093314839E-02 5.088581787981105720E+00
pair_coeff 14    60  1.147736244965881502E-01 4.424312125013074137E+00
pair_coeff 15    60  2.387329654277859925E-01 3.984252396783054539E+00
pair_coeff 16    60  3.469609574750426306E-01 3.823176629528523662E+00
pair_coeff 17    60  4.188334641408217873E-01 3.803761543847788751E+00
pair_coeff 18   60  2.579447874860245626E-01 3.927246681838655107E+00
pair_coeff 19    60  2.641618342654674101E-01 3.819744041394028677E+00
pair_coeff 20     60  1.281958466924380258E-01 3.042394376963291069E+00
pair_coeff 21      60  0.000000000000000000E+00 0.000000000000000000E+00
pair_coeff 22    60  0.000000000000000000E+00 0.000000000000000000E+00
pair_coeff 23      60  5.143749860195843127E-01 3.591633070903154312E+00
pair_coeff 24   60  1.088272547975307258E+00 2.433450243663300760E+00
pair_coeff 25   60  1.088272547975307258E+00 2.433450243663300760E+00
pair_coeff 26     60  0.000000000000000000E+00 0.000000000000000000E+00
pair_coeff 27   60  8.018673498307147263E-01 2.560520917340021185E+00
pair_coeff 28   60  2.083349068186673148E-01 2.745815911556464428E+00
pair_coeff 29   60  2.652783568454061824E-01 3.312247428395911797E+00
pair_coeff 30     60  3.719223788481205717E-01 3.646668612851485136E+00
pair_coeff 31      60  2.515833454197372587E-01 3.386159644432585214E+00
pair_coeff 32     60  4.174965292645979598E-01 3.678599370907961408E+00
pair_coeff 33     60  6.366958749718966137E-01 3.773316487051947554E+00
pair_coeff 34   60  3.757895879907217074E-01 3.747617352300228966E+00
pair_coeff 35   60  2.763231429740154454E-01 3.519929474384682955E+00
pair_coeff 36    60  5.440835296030136631E-02 3.488893897568208224E+00
pair_coeff 37    60  3.068926865963431116E-01 3.996627964011863376E+00
pair_coeff 38   60  2.430962627110289931E-01 3.641432526576616979E+00
pair_coeff 39  60  4.170958270111979060E-01 3.662762233791288402E+00
pair_coeff 40   60  1.071046873416893891E-01 2.930599783893948374E+00
pair_coeff 41  60  4.243620062988024966E-01 3.726074277561229664E+00
pair_coeff 42  60  3.469609574750426306E-01 3.823176629528523662E+00
pair_coeff 43  60  4.879555457568295340E-01 3.202656090277113510E+00
pair_coeff 44   60  1.777720783609382238E-01 3.836407422330105899E+00
pair_coeff 45  60  3.964414504152660723E-01 3.666790541745827525E+00
pair_coeff 46   60  2.194309938750947930E-01 3.464214292717012533E+00
pair_coeff 47   60  2.373700840491974606E-01 3.620510775874676401E+00
pair_coeff 48  60  2.607043970713927572E-01 3.909919482247368627E+00
pair_coeff 49   60  3.434334091567836644E-01 3.394661032931277411E+00
pair_coeff 50  60  2.469901072275602905E-01 3.824193170747873793E+00
pair_coeff 51  60  3.492630772436706166E-01 3.397610400527878660E+00
pair_coeff 52  60  3.142025472514550222E-01 3.560202285987479787E+00
pair_coeff 53   60  3.469609574750426306E-01 3.823176629528523662E+00
pair_coeff 54      60  6.971911766809288924E-01 3.874695073318440208E+00
pair_coeff 55  60  4.377580204247071283E-01 3.571018556827535662E+00
pair_coeff 56      60  1.962416041396830291E-01 3.737165469999586431E+00
pair_coeff 57     60  5.143749860195843127E-01 3.591633070903154312E+00
pair_coeff 58   60  0.000000000000000000E+00 0.000000000000000000E+00
pair_coeff 59  60  4.377580204247071283E-01 3.571018556827535662E+00
pair_coeff 60  60  5.808426402121911192E-01 3.899945979801004992E+00
pair_coeff 1      61  1.910810716445957014E-01 3.063480889575645350E+00
pair_coeff 2     61  2.219034625996930687E-01 2.988070044257751245E+00
pair_coeff 3     61  1.557302947388717884E-01 3.169732425659423480E+00
pair_coeff 4     61  1.737100651314506250E-01 3.112532940505829959E+00
pair_coeff 5     61  1.362311830710550009E-01 3.280853315316931695E+00
pair_coeff 6      61  1.351401432989809970E-01 3.265699916954241999E+00
pair_coeff 7     61  9.147486144193246738E-02 3.485165270484214428E+00
pair_coeff 8     61  6.708554049685398757E-02 3.670023545392655517E+00
pair_coeff 9     61  1.117970875851971996E-01 3.370558915160181357E+00
pair_coeff 10     61  9.581863977856053260E-02 3.458321283688134518E+00
pair_coeff 11     61  1.037391321796109073E-01 3.412845037342698173E+00
pair_coeff 12      61  8.898599273651414121E-02 3.489542683465986617E+00
pair_coeff 13    61  1.413092541937840431E-02 4.751414806224702581E+00
pair_coeff 14    61  5.204423883799429856E-02 4.131159331623315722E+00
pair_coeff 15    61  1.082537519026915002E-01 3.720257749325097230E+00
pair_coeff 16    61  1.573298657900891462E-01 3.569854784934338721E+00
pair_coeff 17    61  1.899205408620464608E-01 3.551726133492507209E+00
pair_coeff 18   61  1.169653758502452456E-01 3.667029205634201983E+00
pair_coeff 19    61  1.197845032314313607E-01 3.566649638438623260E+00
pair_coeff 20     61  5.813056172586479609E-02 2.840806788882025202E+00
pair_coeff 21      61  0.000000000000000000E+00 0.000000000000000000E+00
pair_coeff 22    61  0.000000000000000000E+00 0.000000000000000000E+00
pair_coeff 23      61  2.332439595082145267E-01 3.353653191135248957E+00
pair_coeff 24   61  1.570138934856017687E-01 2.750027377697141340E+00
pair_coeff 25   61  8.635572240102759589E-02 3.038166082187003791E+00
pair_coeff 26     61  0.000000000000000000E+00 0.000000000000000000E+00
pair_coeff 27   61  3.636077195786372451E-01 2.390862032921029723E+00
pair_coeff 28   61  9.446971546223430216E-02 2.563879469944211564E+00
pair_coeff 29   61  1.202907917456541853E-01 3.092779506921127464E+00
pair_coeff 30     61  1.686486525006622439E-01 3.405042104545177306E+00
pair_coeff 31      61  1.140807722516042760E-01 3.161794335073641271E+00
pair_coeff 32     61  1.893143061255012083E-01 3.434857145930944711E+00
pair_coeff 33     61  2.887105145415023166E-01 3.523298351516439553E+00
pair_coeff 34   61  1.704022431634715784E-01 3.499302029072553388E+00
pair_coeff 35   61  1.252990633735053816E-01 3.286700640433966480E+00
pair_coeff 36    61  2.467153345263567096E-02 3.257721466009803724E+00
pair_coeff 37    61  1.391608599006002867E-01 3.731813317421747822E+00
pair_coeff 38   61  1.102322943328560290E-01 3.400152958828419614E+00
pair_coeff 39  61  1.891326072040779016E-01 3.420069369902248191E+00
pair_coeff 40   61  4.856675001010610920E-02 2.736419651778293272E+00
pair_coeff 41  61  1.924274649899363476E-01 3.479186388103933769E+00
pair_coeff 42  61  1.573298657900891462E-01 3.569854784934338721E+00
pair_coeff 43  61  2.212640323687539434E-01 2.990449638154641487E+00
pair_coeff 44   61  8.061096393464804721E-02 3.582208911768658854E+00
pair_coeff 45  61  1.797668551567465633E-01 3.423830764109261793E+00
pair_coeff 46   61  9.950124955784923897E-02 3.234677119905607690E+00
pair_coeff 47   61  1.076357516932685832E-01 3.380617473265008499E+00
pair_coeff 48  61  1.182167241542694813E-01 3.650850097953766138E+00
pair_coeff 49   61  1.557302947388717884E-01 3.169732425659423480E+00
pair_coeff 50  61  1.119979628381875536E-01 3.570803970621432288E+00
pair_coeff 51  61  1.583737647834132234E-01 3.172486369577665499E+00
pair_coeff 52  61  1.424755250553842723E-01 3.324304994910451949E+00
pair_coeff 53   61  1.573298657900891462E-01 3.569854784934338721E+00
pair_coeff 54      61  3.161421822659541414E-01 3.617959641418169170E+00
pair_coeff 55  61  1.985019037967935274E-01 3.334404584847074471E+00
pair_coeff 56      61  8.898599273651414121E-02 3.489542683465986617E+00
pair_coeff 57     61  2.332439595082145267E-01 3.353653191135248957E+00
pair_coeff 58   61  0.000000000000000000E+00 0.000000000000000000E+00
pair_coeff 59  61  1.985019037967935274E-01 3.334404584847074471E+00
pair_coeff 60  61  2.633837976894515820E-01 3.641537434982425658E+00
pair_coeff 61  61  1.194317016050606556E-01 3.400250916053718875E+00
pair_coeff 1      62   3.022272329752703768E-01 3.080610167712853453E+00
pair_coeff 2     62   1.855061234448970586E-01 3.341688535145806327E+00
pair_coeff 3     62   2.783347785346825254E-01 3.123185389796383937E+00
pair_coeff 4     62   2.783347785346825254E-01 3.123185389796383937E+00
pair_coeff 5     62   2.434842638240715673E-01 3.232674486185113771E+00
pair_coeff 6      62   1.146462465840507594E-01 3.643241170326683598E+00
pair_coeff 7     62   9.900340316124917051E-02 3.733414477700354173E+00
pair_coeff 8     62   7.260679827666578767E-02 3.931440254472196472E+00
pair_coeff 9     62   1.209981842003316904E-01 3.610644682584218224E+00
pair_coeff 10     62   1.037046820823140647E-01 3.704658386908206591E+00
pair_coeff 11     62   1.122770449157311640E-01 3.655942855987651008E+00
pair_coeff 12      62   9.630969619111764968E-02 3.738103694920388520E+00
pair_coeff 13    62   1.529392539418433263E-02 5.089859289414571109E+00
pair_coeff 14    62   5.632757107994194185E-02 4.425422859853802571E+00
pair_coeff 15    62   1.171632257693376034E-01 3.985252653506883291E+00
pair_coeff 16    62   1.702783900034554321E-01 3.824136447770248637E+00
pair_coeff 17    62   2.055513348604910695E-01 3.804716487882746634E+00
pair_coeff 18   62   1.265918316646999775E-01 3.928232627132385968E+00
pair_coeff 19    62   1.296429781795231384E-01 3.820702997875749851E+00
pair_coeff 20     62   6.291480902858739843E-02 3.043158177829559552E+00
pair_coeff 21      62   0.000000000000000000E+00 0.000000000000000000E+00
pair_coeff 22    62   0.000000000000000000E+00 0.000000000000000000E+00
pair_coeff 23      62   2.524403469337466177E-01 3.592534759544063760E+00
pair_coeff 24   62   5.340926503741362241E-01 2.434061167552131533E+00
pair_coeff 25   62   5.340926503741362241E-01 2.434061167552131533E+00
pair_coeff 26     62   0.000000000000000000E+00 0.000000000000000000E+00
pair_coeff 27   62   3.935332733664513305E-01 2.561163742645501173E+00
pair_coeff 28   62   1.022447389261494227E-01 2.746505255642734511E+00
pair_coeff 29   62   1.301909351274692650E-01 3.313078976558852418E+00
pair_coeff 30     62   1.825287327352057842E-01 3.647584118305537970E+00
pair_coeff 31      62   8.776721851084816339E-02 3.585264437649749780E+00
pair_coeff 32     62   2.048952059406277393E-01 3.679522892660245681E+00
pair_coeff 33     62   3.124718968411722697E-01 3.774263787777763390E+00
pair_coeff 34   62   1.844266469887313464E-01 3.748558201192733641E+00
pair_coeff 35   62   1.356113963044227322E-01 3.520813161654846368E+00
pair_coeff 36    62   2.670204397705544519E-02 3.489769793277673227E+00
pair_coeff 37    62   1.506140430259195195E-01 3.997631327653401900E+00
pair_coeff 38   62   1.193046057156692125E-01 3.642346717497859210E+00
pair_coeff 39  62   2.046985528789223296E-01 3.663681779589916143E+00
pair_coeff 40   62   5.256387881532230411E-02 2.931335518442557131E+00
pair_coeff 41  62   2.082645832460674196E-01 3.727009718009888228E+00
pair_coeff 42  62   1.702783900034554321E-01 3.824136447770248637E+00
pair_coeff 43  62   1.845251754501273656E-01 3.345696810660210740E+00
pair_coeff 44   62   8.724538781296764522E-02 3.837370562196102064E+00
pair_coeff 45  62   1.945619829925733513E-01 3.667711098861439201E+00
pair_coeff 46   62   1.076903771128106951E-01 3.465083992548747993E+00
pair_coeff 47   62   1.164943630575195482E-01 3.621419714337055673E+00
pair_coeff 48  62   1.279461681314143506E-01 3.910901077503457834E+00
pair_coeff 49   62   1.685471714460022030E-01 3.395513271239786857E+00
pair_coeff 50  62   1.212155918393642284E-01 3.825153244194864577E+00
pair_coeff 51  62   1.714082037169344097E-01 3.398463379282643082E+00
pair_coeff 52  62   1.542015109432330056E-01 3.561096083849689897E+00
pair_coeff 53   62   1.702783900034554321E-01 3.824136447770248637E+00
pair_coeff 54      62   3.421612389871924731E-01 3.875667825396847732E+00
pair_coeff 55  62   2.148389590329646270E-01 3.571915070142120285E+00
pair_coeff 56      62   9.630969619111764968E-02 3.738103694920388520E+00
pair_coeff 57     62   2.524403469337466177E-01 3.592534759544063760E+00
pair_coeff 58   62   0.000000000000000000E+00 0.000000000000000000E+00
pair_coeff 59  62   2.148389590329646270E-01 3.571915070142120285E+00
pair_coeff 60  62   2.850607467204795409E-01 3.900925071183873882E+00
pair_coeff 61  62   2.134587638969343837E-01 3.350318751416838214E+00
pair_coeff 62   62   1.398995591837953467E-01 3.901904408370130639E+00
pair_coeff 1      63   1.498564773336243661E-01 3.117191049441867978E+00
pair_coeff 2     63   1.740291224406275705E-01 3.040458071326784140E+00
pair_coeff 3     63   1.362331612123857949E-01 3.167103100349917710E+00
pair_coeff 4     63   1.362331612123857949E-01 3.167103100349917710E+00
pair_coeff 5     63   1.068401230028258736E-01 3.338374534614535705E+00
pair_coeff 6      63   1.059844685129975872E-01 3.322955460872134559E+00
pair_coeff 7     63   1.059844685129975872E-01 3.322955460872134559E+00
pair_coeff 8     63   1.059844685129975872E-01 3.322955460872134559E+00
pair_coeff 9     63   1.059844685129975872E-01 3.322955460872134559E+00
pair_coeff 10     63   1.059844685129975872E-01 3.322955460872134559E+00
pair_coeff 11     63   1.059844685129975872E-01 3.322955460872134559E+00
pair_coeff 12      63   6.978779891046651973E-02 3.550722727391420364E+00
pair_coeff 13    63   1.108226307601466523E-02 4.834718491813685404E+00
pair_coeff 14    63   4.081600668577894941E-02 4.203588452656632057E+00
pair_coeff 15    63   8.489865468443062724E-02 3.785482781131149110E+00
pair_coeff 16    63   1.233868915625870588E-01 3.632442892420324476E+00
pair_coeff 17    63   1.489463241017357775E-01 3.613996402283818909E+00
pair_coeff 18   63   9.173079805373214601E-02 3.731321013537728604E+00
pair_coeff 19    63   9.394171562323941349E-02 3.629181552027246127E+00
pair_coeff 20     63   4.558924194158552046E-02 2.890612938252534736E+00
pair_coeff 21      63   0.000000000000000000E+00 0.000000000000000000E+00
pair_coeff 22    63   0.000000000000000000E+00 0.000000000000000000E+00
pair_coeff 23      63   1.829229752084453597E-01 3.412450766679025804E+00
pair_coeff 24   63   3.870134779566036798E-01 2.312048303858599940E+00
pair_coeff 25   63   3.870134779566036798E-01 2.312048303858599940E+00
pair_coeff 26     63   0.000000000000000000E+00 0.000000000000000000E+00
pair_coeff 27   63   2.851615365059002039E-01 2.432779572685431102E+00
pair_coeff 28   63   7.408844137221298753E-02 2.608830419916517318E+00
pair_coeff 29   63   9.433877542933588600E-02 3.147003341746720917E+00
pair_coeff 30     63   1.322637179773560601E-01 3.464740650865038685E+00
pair_coeff 31      63   8.946853036768810663E-02 3.217228165191134082E+00
pair_coeff 32     63   1.484708808708911920E-01 3.495078421360915844E+00
pair_coeff 33     63   2.264229539116222045E-01 3.585070213178863874E+00
pair_coeff 34   63   1.336389819799702339E-01 3.560653177709135697E+00
pair_coeff 35   63   9.826654251385204264E-02 3.344324377350627486E+00
pair_coeff 36    63   1.934879819235730755E-02 3.314837128566866298E+00
pair_coeff 37    63   1.091377396407426786E-01 3.797240946022814256E+00
pair_coeff 38   63   8.645033846078624407E-02 3.459765786709836810E+00
pair_coeff 39  63   1.483283824011816243E-01 3.480031380188026713E+00
pair_coeff 40   63   3.808876520011451883E-02 2.784395644531571179E+00
pair_coeff 41  63   1.509123943959561898E-01 3.540184861358758983E+00
pair_coeff 42  63   1.233868915625870588E-01 3.632442892420324476E+00
pair_coeff 43  63   1.735276454440603799E-01 3.042879385206016973E+00
pair_coeff 44   63   6.321963230446354942E-02 3.645013616697617920E+00
pair_coeff 45  63   1.409832351434577025E-01 3.483858720647509788E+00
pair_coeff 46   63   7.803445218669756434E-02 3.291388759862927227E+00
pair_coeff 47   63   8.441398431086369336E-02 3.439887797278931458E+00
pair_coeff 48  63   9.271217547193744135E-02 3.714858247335717678E+00
pair_coeff 49   63   1.221324183648120482E-01 3.225305429523958711E+00
pair_coeff 50  63   8.783507458389137879E-02 3.633408719606690873E+00
pair_coeff 51  63   1.242055756137348393E-01 3.228107656677332127E+00
pair_coeff 52  63   1.117372856834838307E-01 3.382588026258317004E+00
pair_coeff 53   63   1.233868915625870588E-01 3.632442892420324476E+00
pair_coeff 54      63   2.479364039733781833E-01 3.681391142293968244E+00
pair_coeff 55  63   1.556763094898980793E-01 3.392864686204393188E+00
pair_coeff 56      63   6.978779891046651973E-02 3.550722727391420364E+00
pair_coeff 57     63   1.829229752084453597E-01 3.412450766679025804E+00
pair_coeff 58   63   0.000000000000000000E+00 0.000000000000000000E+00
pair_coeff 59  63   1.556763094898980793E-01 3.392864686204393188E+00
pair_coeff 60  63   2.065603242057677535E-01 3.705382311070042789E+00
pair_coeff 61  63   9.366502883019156567E-02 3.459865461359993954E+00
pair_coeff 62   63   1.013738251713232619E-01 3.706312556747750619E+00
pair_coeff 63   63   7.345736105118740034E-02 3.520525192477496734E+00
pair_coeff 1      64   2.736888169216060152E-01 2.785635403427779710E+00
pair_coeff 2     64   3.178362756028405567E-01 2.717064020712530947E+00
pair_coeff 3     64   2.488080153832781527E-01 2.830238629172332043E+00
pair_coeff 4     64   2.488080153832781527E-01 2.830238629172332043E+00
pair_coeff 5     64   1.951263461191829751E-01 2.983293017984591344E+00
pair_coeff 6      64   1.935636304516219763E-01 2.969513972355486864E+00
pair_coeff 7     64   1.935636304516219763E-01 2.969513972355486864E+00
pair_coeff 8     64   1.935636304516219763E-01 2.969513972355486864E+00
pair_coeff 9     64   1.935636304516219763E-01 2.969513972355486864E+00
pair_coeff 10     64   1.935636304516219763E-01 2.969513972355486864E+00
pair_coeff 11     64   1.935636304516219763E-01 2.969513972355486864E+00
pair_coeff 12      64   1.274562198392401313E-01 3.173055093606844679E+00
pair_coeff 13    64   2.023997576918816488E-02 4.320480452686580541E+00
pair_coeff 14    64   7.454388879317874750E-02 3.756479673344732539E+00
pair_coeff 15    64   1.550537739325613118E-01 3.382845224091495684E+00
pair_coeff 16    64   2.253463645766736745E-01 3.246083208107312768E+00
pair_coeff 17    64   2.720265680439789557E-01 3.229598752975045173E+00
pair_coeff 18   64   1.675315878319233176E-01 3.334444296805542329E+00
pair_coeff 19    64   1.715694741126911615E-01 3.243168755602641173E+00
pair_coeff 20     64   8.326143729888541012E-02 2.583156954670584149E+00
pair_coeff 21      64   0.000000000000000000E+00 0.000000000000000000E+00
pair_coeff 22    64   0.000000000000000000E+00 0.000000000000000000E+00
pair_coeff 23      64   3.340794709935869244E-01 3.049490235709929387E+00
pair_coeff 24   64   7.068180354917007469E-01 2.066130534673785490E+00
pair_coeff 25   64   7.068180354917007469E-01 2.066130534673785490E+00
pair_coeff 26     64   0.000000000000000000E+00 0.000000000000000000E+00
pair_coeff 27   64   5.208018028082631590E-01 2.174020391731148916E+00
pair_coeff 28   64   1.353106534166275132E-01 2.331345837965244083E+00
pair_coeff 29   64   1.722946401549686202E-01 2.812276753150826814E+00
pair_coeff 30     64   2.415584640648248682E-01 3.096218379836923162E+00
pair_coeff 31      64   1.633999188005277048E-01 2.875032211922354808E+00
pair_coeff 32     64   2.711582472501199992E-01 3.123329316001555611E+00
pair_coeff 33     64   4.135252041325190309E-01 3.203749257330099631E+00
pair_coeff 34   64   2.440701631553644779E-01 3.181929305529774155E+00
pair_coeff 35   64   1.794680766699055796E-01 2.988610014058173281E+00
pair_coeff 36    64   3.533747609942639034E-02 2.962259135058813886E+00
pair_coeff 37    64   1.993225743407424921E-01 3.393352748295836552E+00
pair_coeff 38   64   1.578876754398131910E-01 3.091772660117416471E+00
pair_coeff 39  64   2.708979966538037076E-01 3.109882732220449419E+00
pair_coeff 40   64   6.956301970462222539E-02 2.488237314150513413E+00
pair_coeff 41  64   2.756172800531233036E-01 3.163638072888010022E+00
pair_coeff 42  64   2.253463645766736745E-01 3.246083208107312768E+00
pair_coeff 43  64   3.169204083120440441E-01 2.719227794943182452E+00
pair_coeff 44   64   1.154605171527362945E-01 3.257316864959954650E+00
pair_coeff 45  64   2.574832634447348223E-01 3.113302982989749168E+00
pair_coeff 46   64   1.425174091778202701E-01 2.941304819144806793E+00
pair_coeff 47   64   1.541686012426736752E-01 3.074008965101800328E+00
pair_coeff 48  64   1.693239162605719161E-01 3.319732569598804695E+00
pair_coeff 49   64   2.230552705147563208E-01 2.882250349383768562E+00
pair_coeff 50  64   1.604166738389782576E-01 3.246946306442084040E+00
pair_coeff 51  64   2.268415596685240676E-01 2.884754521583377418E+00
pair_coeff 52  64   2.040702281868096157E-01 3.022803803713983939E+00
pair_coeff 53   64   2.253463645766736745E-01 3.246083208107312768E+00
pair_coeff 54      64   4.528160696330849611E-01 3.289825146160248348E+00
pair_coeff 55  64   2.843178067782592411E-01 3.031987401164613072E+00
pair_coeff 56      64   1.274562198392401313E-01 3.173055093606844679E+00
pair_coeff 57     64   3.340794709935869244E-01 3.049490235709929387E+00
pair_coeff 58   64   0.000000000000000000E+00 0.000000000000000000E+00
pair_coeff 59  64   2.843178067782592411E-01 3.031987401164613072E+00
pair_coeff 60  64   3.772492971989485633E-01 3.311264527979406402E+00
pair_coeff 61  64   1.710641500693499129E-01 3.091861733013461677E+00
pair_coeff 62   64   1.851430299952198100E-01 3.312095829382690759E+00
pair_coeff 63   64   1.341580864437666998E-01 3.146069477063536013E+00
pair_coeff 64   64   2.450182241873804789E-01 2.811442217672497801E+00
pair_coeff 1      65   3.029649478331380430E-01 3.149235865916097055E+00
pair_coeff 2     65   1.859589305005138193E-01 3.416130186772377453E+00
pair_coeff 3     65   2.790141736360602920E-01 3.192759521648344645E+00
pair_coeff 4     65   2.790141736360602920E-01 3.192759521648344645E+00
pair_coeff 5     65   2.440785913349041991E-01 3.304687669158851371E+00
pair_coeff 6      65   1.476955362938090210E-01 3.571891367671221396E+00
pair_coeff 7     65   1.476955362938090210E-01 3.571891367671221396E+00
pair_coeff 8     65   1.476955362938090210E-01 3.571891367671221396E+00
pair_coeff 9     65   1.476955362938090210E-01 3.571891367671221396E+00
pair_coeff 10     65   1.476955362938090210E-01 3.571891367671221396E+00
pair_coeff 11     65   1.476955362938090210E-01 3.571891367671221396E+00
pair_coeff 12      65   9.725336675705262279E-02 3.816721592661593387E+00
pair_coeff 13    65   1.544377974741017144E-02 5.196906624050063428E+00
pair_coeff 14    65   5.687948509255881524E-02 4.518496105074461866E+00
pair_coeff 15    65   1.183112253160199800E-01 4.069068462579280343E+00
pair_coeff 16    65   1.719468274611148095E-01 3.904563742659835412E+00
pair_coeff 17    65   2.075653869462910639E-01 3.884735352042429479E+00
pair_coeff 18   65   1.278322154490358076E-01 4.010849219979507829E+00
pair_coeff 19    65   1.309132579896203075E-01 3.901058082191544596E+00
pair_coeff 20     65   6.353126672484969706E-02 3.107160334527358625E+00
pair_coeff 21      65   0.000000000000000000E+00 0.000000000000000000E+00
pair_coeff 22    65   0.000000000000000000E+00 0.000000000000000000E+00
pair_coeff 23      65   2.549138312710149123E-01 3.668091125393774021E+00
pair_coeff 24   65   5.393258463406160885E-01 2.485253105385875294E+00
pair_coeff 25   65   5.393258463406160885E-01 2.485253105385875294E+00
pair_coeff 26     65   0.000000000000000000E+00 0.000000000000000000E+00
pair_coeff 27   65   3.973892274549682413E-01 2.615028837263234429E+00
pair_coeff 28   65   1.032465627763134441E-01 2.804268358797742167E+00
pair_coeff 29   65   1.314665839799746549E-01 3.382757970360330546E+00
pair_coeff 30     65   1.843172026331671987E-01 3.724298254300499433E+00
pair_coeff 31      65   1.246796135270904909E-01 3.458243616680580335E+00
pair_coeff 32     65   2.069028290834072914E-01 3.756908748730711789E+00
pair_coeff 33     65   3.155335878587179343E-01 3.853642186220550769E+00
pair_coeff 34   65   1.862337132055325029E-01 3.827395972798371737E+00
pair_coeff 35   65   1.369401564205784128E-01 3.594861115296422938E+00
pair_coeff 36    65   2.696367841209141095E-02 3.563164858567346549E+00
pair_coeff 37    65   1.520898034616910699E-01 4.081707478711374293E+00
pair_coeff 38   65   1.204735871292430399E-01 3.718950703139931591E+00
pair_coeff 39  65   2.067042491574984375E-01 3.740734473418478423E+00
pair_coeff 40   65   5.307891507056041597E-02 2.992985877780431903E+00
pair_coeff 41  65   2.103052205329510593E-01 3.805394292865085681E+00
pair_coeff 42  65   1.719468274611148095E-01 3.904563742659835412E+00
pair_coeff 43  65   2.418208914499519191E-01 3.270833671068669624E+00
pair_coeff 44   65   8.810024363484980636E-02 3.918076190256606139E+00
pair_coeff 45  65   1.964683581952911540E-01 3.744848535285795421E+00
pair_coeff 46   65   1.087455589183283500E-01 3.537959878619287846E+00
pair_coeff 47   65   1.176358088917642403E-01 3.697583573880764529E+00
pair_coeff 48  65   1.291998221004829195E-01 3.993153162004202006E+00
pair_coeff 49   65   1.701986459179967992E-01 3.466925981245660537E+00
pair_coeff 50  65   1.224032976537840489E-01 3.905601923830262834E+00
pair_coeff 51  65   1.730877114197359179E-01 3.469938134462050350E+00
pair_coeff 52  65   1.557124224386972067E-01 3.635991247444840813E+00
pair_coeff 53   65   1.719468274611148095E-01 3.904563742659835412E+00
pair_coeff 54      65   3.455138348607721954E-01 3.957178902039792057E+00
pair_coeff 55  65   2.169440139762717490E-01 3.647037773160310081E+00
pair_coeff 56      65   9.725336675705262279E-02 3.816721592661593387E+00
pair_coeff 57     65   2.549138312710149123E-01 3.668091125393774021E+00
pair_coeff 58   65   0.000000000000000000E+00 0.000000000000000000E+00
pair_coeff 59  65   2.169440139762717490E-01 3.647037773160310081E+00
pair_coeff 60  65   2.878538552736386591E-01 3.982967345388086056E+00
pair_coeff 61  65   2.139798013299897272E-01 3.424952655417128344E+00
pair_coeff 62   65   1.412703359737776110E-01 3.983967279496484881E+00
pair_coeff 63   65   1.023671155538469490E-01 3.784261839422624174E+00
pair_coeff 64   65   1.869571155422015130E-01 3.381754146132254668E+00
pair_coeff 65   65   1.426545440355874161E-01 4.067756055235738799E+00
pair_coeff 1      66   4.547358060207790653E-01 2.888292173693689513E+00
pair_coeff 2     66   2.791154051078111320E-01 3.133071799912078959E+00
pair_coeff 3     66   4.187868466206033369E-01 2.928209486837023423E+00
pair_coeff 4     66   4.187868466206033369E-01 2.928209486837023423E+00
pair_coeff 5     66   3.663502189178132196E-01 3.030863338829969500E+00
pair_coeff 6      66   1.833232912906428147E-01 3.381325076733848078E+00
pair_coeff 7     66   1.833232912906428147E-01 3.381325076733848078E+00
pair_coeff 8     66   1.833232912906428147E-01 3.381325076733848078E+00
pair_coeff 9     66   1.833232912906428147E-01 3.381325076733848078E+00
pair_coeff 10     66   1.833232912906428147E-01 3.381325076733848078E+00
pair_coeff 11     66   1.833232912906428147E-01 3.381325076733848078E+00
pair_coeff 12      66   1.207132438148451475E-01 3.613093205741105152E+00
pair_coeff 13    66   1.916919498251404980E-02 4.919643091161947979E+00
pair_coeff 14    66   7.060020008554598880E-02 4.277426891393306008E+00
pair_coeff 15    66   1.468507699407754774E-01 3.851976954281385979E+00
pair_coeff 16    66   2.134245836275632802E-01 3.696248832273197671E+00
pair_coeff 17    66   2.576352058285252822E-01 3.677478318972391413E+00
pair_coeff 18   66   1.586684544241984962E-01 3.796863804219543059E+00
pair_coeff 19    66   1.624927193500039502E-01 3.692930204568213970E+00
pair_coeff 20     66   7.885655320479272035E-02 2.941388210084320498E+00
pair_coeff 21      66   0.000000000000000000E+00 0.000000000000000000E+00
pair_coeff 22    66   0.000000000000000000E+00 0.000000000000000000E+00
pair_coeff 23      66   3.164052463383004721E-01 3.472392418844832296E+00
pair_coeff 24   66   6.694243557407878464E-01 2.352660756519802554E+00
pair_coeff 25   66   6.694243557407878464E-01 2.352660756519802554E+00
pair_coeff 26     66   0.000000000000000000E+00 0.000000000000000000E+00
pair_coeff 27   66   4.932491727818341110E-01 2.475512739231275461E+00
pair_coeff 28   66   1.281521444557910949E-01 2.654656020425442797E+00
pair_coeff 29   66   1.631795210249484540E-01 3.202282257861074122E+00
pair_coeff 30     66   2.287789941124505622E-01 3.525600804795111287E+00
pair_coeff 31      66   1.547553682540754594E-01 3.273740620549896452E+00
pair_coeff 32     66   2.568128228971093829E-01 3.556471475605421873E+00
pair_coeff 33     66   3.916479623591037629E-01 3.648044024788604123E+00
pair_coeff 34   66   2.311578136403500405E-01 3.623198090106222846E+00
pair_coeff 35   66   1.699734522439199091E-01 3.403069350469131837E+00
pair_coeff 36    66   3.346797334466397600E-02 3.373064141271939320E+00
pair_coeff 37    66   1.887775625586927686E-01 3.863941658073751118E+00
pair_coeff 38   66   1.495347460074094303E-01 3.520538554301717582E+00
pair_coeff 39  66   2.565663406640278366E-01 3.541160124536279596E+00
pair_coeff 40   66   6.588284015242455716E-02 2.833305148764191372E+00
pair_coeff 41  66   2.610359539032401366E-01 3.602370236056116504E+00
pair_coeff 42  66   2.134245836275632802E-01 3.696248832273197671E+00
pair_coeff 43  66   3.001539710398187233E-01 3.096329304387715808E+00
pair_coeff 44   66   1.093521648109900685E-01 3.709040368522185549E+00
pair_coeff 45  66   2.438613038865376503E-01 3.545054694423006580E+00
pair_coeff 46   66   1.349776321912045940E-01 3.349203888541882890E+00
pair_coeff 47   66   1.460124266502917378E-01 3.500311396601526681E+00
pair_coeff 48  66   1.603659610572732153E-01 3.780111860100299648E+00
pair_coeff 49   66   2.112546981841710303E-01 3.281959766656903810E+00
pair_coeff 50  66   1.519299496369445057E-01 3.697231624767261415E+00
pair_coeff 51  66   2.148406765408863717E-01 3.284811216535175493E+00
pair_coeff 52  66   1.932740453273771308E-01 3.442005122285029639E+00
pair_coeff 53   66   2.134245836275632802E-01 3.696248832273197671E+00
pair_coeff 54      66   4.288601739941917956E-01 3.746056886190522572E+00
pair_coeff 55  66   2.692761857664918157E-01 3.452462297648919431E+00
pair_coeff 56      66   1.207132438148451475E-01 3.613093205741105152E+00
pair_coeff 57     66   3.164052463383004721E-01 3.472392418844832296E+00
pair_coeff 58   66   0.000000000000000000E+00 0.000000000000000000E+00
pair_coeff 59  66   2.692761857664918157E-01 3.452462297648919431E+00
pair_coeff 60  66   3.572912051620057983E-01 3.770469473586865128E+00
pair_coeff 61  66   3.211733836732513225E-01 3.141163244384396869E+00
pair_coeff 62   66   1.753481764061503856E-01 3.771416059562691103E+00
pair_coeff 63   66   1.270605531769710694E-01 3.582365233831064533E+00
pair_coeff 64   66   2.320557182122369999E-01 3.201331989309867510E+00
pair_coeff 65   66   1.770662891134783812E-01 3.850734566032467665E+00
pair_coeff 66   66   2.197789839249462973E-01 3.645291530929309243E+00
pair_coeff 1      67   1.691446126797976623E-01 2.985294938784757601E+00
pair_coeff 2     67   1.038204303792348571E-01 3.238295444039348325E+00
pair_coeff 3     67   1.557729521826987651E-01 3.026552867598893748E+00
pair_coeff 4     67   1.557729521826987651E-01 3.026552867598893748E+00
pair_coeff 5     67   1.362684993430692826E-01 3.132654330460733050E+00
pair_coeff 6      67   1.059571877347386532E-01 3.247362366332479766E+00
pair_coeff 7     67   9.149991811937653596E-02 3.327737337717295407E+00
pair_coeff 8     67   6.710391648259360353E-02 3.504245404295543764E+00
pair_coeff 9     67   1.118277109009218756E-01 3.218307850690846461E+00
pair_coeff 10     67   9.584488629822959793E-02 3.302105917046649353E+00
pair_coeff 11     67   1.037675482704622926E-01 3.258683872122532410E+00
pair_coeff 12      67   1.015608295071512290E-01 3.259466857310918897E+00
pair_coeff 13    67   1.612780240082512320E-02 4.438140034683073054E+00
pair_coeff 14    67   5.939874248642398880E-02 3.858779830233354247E+00
pair_coeff 15    67   1.235513646855942310E-01 3.474970199400187365E+00
pair_coeff 16    67   1.795625489418590515E-01 3.334483745402706312E+00
pair_coeff 17    67   2.167586951297953424E-01 3.317550369341032201E+00
pair_coeff 18   67   1.334940503517269006E-01 3.425251170357942243E+00
pair_coeff 19    67   1.367115557872998488E-01 3.331489923654913365E+00
pair_coeff 20     67   6.634513912854232698E-02 2.653504030845614370E+00
pair_coeff 21      67   0.000000000000000000E+00 0.000000000000000000E+00
pair_coeff 22    67   0.000000000000000000E+00 0.000000000000000000E+00
pair_coeff 23      67   2.662042561611659419E-01 3.132536959416989397E+00
pair_coeff 24   67   1.570569025311612521E-01 2.625806260038883178E+00
pair_coeff 25   67   8.637937685043090008E-02 2.900929489772888559E+00
pair_coeff 26     67   0.000000000000000000E+00 0.000000000000000000E+00
pair_coeff 27   67   3.637073185416969667E-01 2.282864724856101368E+00
pair_coeff 28   67   9.449559248627407981E-02 2.448066814448311757E+00
pair_coeff 29   67   1.203237416459956299E-01 2.953075978826793957E+00
pair_coeff 30     67   1.924808221665462171E-01 3.180537650420577123E+00
pair_coeff 31      67   8.111532584620605169E-02 3.195685452558168382E+00
pair_coeff 32     67   1.893661628589180523E-01 3.279701674707491854E+00
pair_coeff 33     67   2.887895977576290796E-01 3.364147914463202049E+00
pair_coeff 34   67   1.944822171822568335E-01 3.268582740519445640E+00
pair_coeff 35   67   1.253333851332271154E-01 3.138237526839545488E+00
pair_coeff 36    67   2.467829144763044116E-02 3.110567366814649404E+00
pair_coeff 37    67   1.391989786659572903E-01 3.563244078823733396E+00
pair_coeff 38   67   1.258094999745671128E-01 3.175970860479923275E+00
pair_coeff 39  67   2.158594165642706009E-01 3.194574123915934649E+00
pair_coeff 40   67   5.542984087504426033E-02 2.555999445121150515E+00
pair_coeff 41  67   2.196198790769573750E-01 3.249793383002357761E+00
pair_coeff 42  67   1.795625489418590515E-01 3.334483745402706312E+00
pair_coeff 43  67   1.705399805009815140E-01 2.982149521307246864E+00
pair_coeff 44   67   9.200230410212105470E-02 3.346023328270764097E+00
pair_coeff 45  67   2.051701662942675142E-01 3.198087518325217538E+00
pair_coeff 46   67   9.952850481329482413E-02 3.088563953776058746E+00
pair_coeff 47   67   1.228460332960751161E-01 3.157723407013565797E+00
pair_coeff 48  67   1.349222298646011453E-01 3.410138798895884893E+00
pair_coeff 49   67   1.557729521826987651E-01 3.026552867598893748E+00
pair_coeff 50  67   1.278246795834196148E-01 3.335370348482007863E+00
pair_coeff 51  67   1.584171463231851262E-01 3.029182413485949965E+00
pair_coeff 52  67   1.425145517695953212E-01 3.174143260066013106E+00
pair_coeff 53   67   1.795625489418590515E-01 3.334483745402706312E+00
pair_coeff 54      67   3.608170374432017602E-01 3.379416907025193595E+00
pair_coeff 55  67   2.265527122683737016E-01 3.114557470430365349E+00
pair_coeff 56      67   1.015608295071512290E-01 3.259466857310918897E+00
pair_coeff 57     67   2.662042561611659419E-01 3.132536959416989397E+00
pair_coeff 58   67   0.000000000000000000E+00 0.000000000000000000E+00
pair_coeff 59  67   2.265527122683737016E-01 3.114557470430365349E+00
pair_coeff 60  67   3.006032314691269858E-01 3.401440147220920363E+00
pair_coeff 61  67   1.194644161845258429E-01 3.246658638196322055E+00
pair_coeff 62   67   2.135172342494472131E-01 3.198981952667974138E+00
pair_coeff 63   67   1.069010720818995841E-01 3.231746341860607608E+00
pair_coeff 64   67   1.952376598350860082E-01 2.888006183129844473E+00
pair_coeff 65   67   2.140384144044120418E-01 3.270244578605614905E+00
pair_coeff 66   67   3.212613590771104533E-01 2.999274180977609561E+00
pair_coeff 67   67   1.194971397251269885E-01 3.100004256511835088E+00
pair_coeff 1      68     4.228207516674085675E-01 3.056859151858752899E+00
pair_coeff 2     68     4.910239828909634396E-01 2.981611307668237565E+00
pair_coeff 3     68     3.843825015158260361E-01 3.105805176400184386E+00
pair_coeff 4     68     3.843825015158260361E-01 3.105805176400184386E+00
pair_coeff 5     68     3.014499067379129427E-01 3.273761725414885415E+00
pair_coeff 6      68     2.990356735930130294E-01 3.258641081240354787E+00
pair_coeff 7     68     2.990356735930130294E-01 3.258641081240354787E+00
pair_coeff 8     68     2.990356735930130294E-01 3.258641081240354787E+00
pair_coeff 9     68     2.990356735930130294E-01 3.258641081240354787E+00
pair_coeff 10     68     2.990356735930130294E-01 3.258641081240354787E+00
pair_coeff 11     68     2.990356735930130294E-01 3.258641081240354787E+00
pair_coeff 12      68     1.969066010196180716E-01 3.482000009875157343E+00
pair_coeff 13    68     3.126865710011655919E-02 4.741144586247799886E+00
pair_coeff 14    68     1.151625537581669190E-01 4.122229798668242573E+00
pair_coeff 15    68     2.395419512585078570E-01 3.712216383328954539E+00
pair_coeff 16    68     3.481366916176150683E-01 3.562138516112925313E+00
pair_coeff 17    68     4.202527500668978289E-01 3.544049049891872194E+00
pair_coeff 18   68     2.588188757285546648E-01 3.659102893548325852E+00
pair_coeff 19    68     2.650569899912606497E-01 3.558940297566233646E+00
pair_coeff 20     68     1.286302593565866181E-01 2.834666362961839603E+00
pair_coeff 21      68     0.000000000000000000E+00 0.000000000000000000E+00
pair_coeff 22    68     0.000000000000000000E+00 0.000000000000000000E+00
pair_coeff 23      68     5.161180300714267588E-01 3.346404243736659900E+00
pair_coeff 24   68     1.091960338095528060E+00 2.267299599251422659E+00
pair_coeff 25   68     1.091960338095528060E+00 2.267299599251422659E+00
pair_coeff 26     68     0.000000000000000000E+00 0.000000000000000000E+00
pair_coeff 27   68     8.045846089363817288E-01 2.385694166082639622E+00
pair_coeff 28   68     2.090408838393064406E-01 2.558337624572998514E+00
pair_coeff 29   68     2.661772960911888974E-01 3.086094440015471729E+00
pair_coeff 30     68     3.731826988633197284E-01 3.397682079611450412E+00
pair_coeff 31      68     2.524358768718786838E-01 3.154960092081345202E+00
pair_coeff 32     68     4.189112847674477114E-01 3.427432675553883090E+00
pair_coeff 33     68     6.388534234294728220E-01 3.515682714787159213E+00
pair_coeff 34   68     3.770630126787305469E-01 3.491738260580458331E+00
pair_coeff 35   68     2.772595092901040115E-01 3.279596411493302277E+00
pair_coeff 36    68     5.459272459301211383E-02 3.250679875779549644E+00
pair_coeff 37    68     3.079326428276232264E-01 3.723746973975487151E+00
pair_coeff 38   68     2.439200342906357177E-01 3.392803501821101797E+00
pair_coeff 39  68     4.185092246687046047E-01 3.412676863417832607E+00
pair_coeff 40   68     1.074676291512047521E-01 2.730504859465051837E+00
pair_coeff 41  68     4.258000265972445297E-01 3.471666099725899457E+00
pair_coeff 42  68     3.481366916176150683E-01 3.562138516112925313E+00
pair_coeff 43  68     4.896090631997686571E-01 2.983985758054453097E+00
pair_coeff 44   68     1.783744882218230021E-01 3.574465939406219039E+00
pair_coeff 45  68     3.977848573281826949E-01 3.416430127342078293E+00
pair_coeff 46   68     2.201745718076525138E-01 3.227685340208292786E+00
pair_coeff 47   68     2.381744515327116618E-01 3.373310242361340361E+00
pair_coeff 48  68     2.615878367038697028E-01 3.642958757134699077E+00
pair_coeff 49   68     3.445971896229899079E-01 3.162881024422723453E+00
pair_coeff 50  68     2.478270737383122535E-01 3.563085650127790327E+00
pair_coeff 51  68     3.504466124968692586E-01 3.165629015669813917E+00
pair_coeff 52  68     3.152672741451525984E-01 3.317119483865758500E+00
pair_coeff 53   68     3.481366916176150683E-01 3.562138516112925313E+00
pair_coeff 54      68     6.995537233959522316E-01 3.610139393576149658E+00
pair_coeff 55  68     4.392414353153730744E-01 3.327197243460355836E+00
pair_coeff 56      68     1.969066010196180716E-01 3.482000009875157343E+00
pair_coeff 57     68     5.161180300714267588E-01 3.346404243736659900E+00
pair_coeff 58   68     0.000000000000000000E+00 0.000000000000000000E+00
pair_coeff 59  68     4.392414353153730744E-01 3.327197243460355836E+00
pair_coeff 60  68     5.828109208179663714E-01 3.633666223556641928E+00
pair_coeff 61  68     2.642763169106269738E-01 3.392901247311097990E+00
pair_coeff 62   68     2.860267218407508971E-01 3.634578464727707292E+00
pair_coeff 63   68     2.072602877620044470E-01 3.452386935315056249E+00
pair_coeff 64   68     3.785276683511555329E-01 3.085178649883229873E+00
pair_coeff 65   68     2.888292953006066366E-01 3.711019072424234899E+00
pair_coeff 66   68     3.585019450441149225E-01 3.513030089156019553E+00
pair_coeff 67   68     2.643487071424846513E-01 3.239640960354239319E+00
pair_coeff 68     68     5.847858712655799041E-01 3.385567464934501558E+00
pair_coeff 1      69      4.228207516674085675E-01 3.056859151858752899E+00
pair_coeff 2     69      4.910239828909634396E-01 2.981611307668237565E+00
pair_coeff 3     69      3.843825015158260361E-01 3.105805176400184386E+00
pair_coeff 4     69      3.843825015158260361E-01 3.105805176400184386E+00
pair_coeff 5     69      3.014499067379129427E-01 3.273761725414885415E+00
pair_coeff 6      69      2.990356735930130294E-01 3.258641081240354787E+00
pair_coeff 7     69      2.990356735930130294E-01 3.258641081240354787E+00
pair_coeff 8     69      2.990356735930130294E-01 3.258641081240354787E+00
pair_coeff 9     69      2.990356735930130294E-01 3.258641081240354787E+00
pair_coeff 10     69      2.990356735930130294E-01 3.258641081240354787E+00
pair_coeff 11     69      2.990356735930130294E-01 3.258641081240354787E+00
pair_coeff 12      69      1.969066010196180716E-01 3.482000009875157343E+00
pair_coeff 13    69      3.126865710011655919E-02 4.741144586247799886E+00
pair_coeff 14    69      1.151625537581669190E-01 4.122229798668242573E+00
pair_coeff 15    69      2.395419512585078570E-01 3.712216383328954539E+00
pair_coeff 16    69      3.481366916176150683E-01 3.562138516112925313E+00
pair_coeff 17    69      4.202527500668978289E-01 3.544049049891872194E+00
pair_coeff 18   69      2.588188757285546648E-01 3.659102893548325852E+00
pair_coeff 19    69      2.650569899912606497E-01 3.558940297566233646E+00
pair_coeff 20     69      1.286302593565866181E-01 2.834666362961839603E+00
pair_coeff 21      69      0.000000000000000000E+00 0.000000000000000000E+00
pair_coeff 22    69      0.000000000000000000E+00 0.000000000000000000E+00
pair_coeff 23      69      5.161180300714267588E-01 3.346404243736659900E+00
pair_coeff 24   69      1.091960338095528060E+00 2.267299599251422659E+00
pair_coeff 25   69      1.091960338095528060E+00 2.267299599251422659E+00
pair_coeff 26     69      0.000000000000000000E+00 0.000000000000000000E+00
pair_coeff 27   69      8.045846089363817288E-01 2.385694166082639622E+00
pair_coeff 28   69      2.090408838393064406E-01 2.558337624572998514E+00
pair_coeff 29   69      2.661772960911888974E-01 3.086094440015471729E+00
pair_coeff 30     69      3.731826988633197284E-01 3.397682079611450412E+00
pair_coeff 31      69      2.524358768718786838E-01 3.154960092081345202E+00
pair_coeff 32     69      4.189112847674477114E-01 3.427432675553883090E+00
pair_coeff 33     69      6.388534234294728220E-01 3.515682714787159213E+00
pair_coeff 34   69      3.770630126787305469E-01 3.491738260580458331E+00
pair_coeff 35   69      2.772595092901040115E-01 3.279596411493302277E+00
pair_coeff 36    69      5.459272459301211383E-02 3.250679875779549644E+00
pair_coeff 37    69      3.079326428276232264E-01 3.723746973975487151E+00
pair_coeff 38   69      2.439200342906357177E-01 3.392803501821101797E+00
pair_coeff 39  69      4.185092246687046047E-01 3.412676863417832607E+00
pair_coeff 40   69      1.074676291512047521E-01 2.730504859465051837E+00
pair_coeff 41  69      4.258000265972445297E-01 3.471666099725899457E+00
pair_coeff 42  69      3.481366916176150683E-01 3.562138516112925313E+00
pair_coeff 43  69      4.896090631997686571E-01 2.983985758054453097E+00
pair_coeff 44   69      1.783744882218230021E-01 3.574465939406219039E+00
pair_coeff 45  69      3.977848573281826949E-01 3.416430127342078293E+00
pair_coeff 46   69      2.201745718076525138E-01 3.227685340208292786E+00
pair_coeff 47   69      2.381744515327116618E-01 3.373310242361340361E+00
pair_coeff 48  69      2.615878367038697028E-01 3.642958757134699077E+00
pair_coeff 49   69      3.445971896229899079E-01 3.162881024422723453E+00
pair_coeff 50  69      2.478270737383122535E-01 3.563085650127790327E+00
pair_coeff 51  69      3.504466124968692586E-01 3.165629015669813917E+00
pair_coeff 52  69      3.152672741451525984E-01 3.317119483865758500E+00
pair_coeff 53   69      3.481366916176150683E-01 3.562138516112925313E+00
pair_coeff 54      69      6.995537233959522316E-01 3.610139393576149658E+00
pair_coeff 55  69      4.392414353153730744E-01 3.327197243460355836E+00
pair_coeff 56      69      1.969066010196180716E-01 3.482000009875157343E+00
pair_coeff 57     69      5.161180300714267588E-01 3.346404243736659900E+00
pair_coeff 58   69      0.000000000000000000E+00 0.000000000000000000E+00
pair_coeff 59  69      4.392414353153730744E-01 3.327197243460355836E+00
pair_coeff 60  69      5.828109208179663714E-01 3.633666223556641928E+00
pair_coeff 61  69      2.642763169106269738E-01 3.392901247311097990E+00
pair_coeff 62   69      2.860267218407508971E-01 3.634578464727707292E+00
pair_coeff 63   69      2.072602877620044470E-01 3.452386935315056249E+00
pair_coeff 64   69      3.785276683511555329E-01 3.085178649883229873E+00
pair_coeff 65   69      2.888292953006066366E-01 3.711019072424234899E+00
pair_coeff 66   69      3.585019450441149225E-01 3.513030089156019553E+00
pair_coeff 67   69      2.643487071424846513E-01 3.239640960354239319E+00
pair_coeff 68     69      5.847858712655799041E-01 3.385567464934501558E+00
pair_coeff 69      69      5.847858712655799041E-01 3.385567464934501558E+00
	# Coefficients of AL3 copied from ZN2+
pair_coeff 1      70    5.148167869545027253E-01 2.198391984374735042E+00
pair_coeff 2     70    1.896163524310913173E-01 2.596577466216851260E+00
pair_coeff 3     70    4.741181493550025716E-01 2.228774610499382636E+00
pair_coeff 4     70    4.741181493550025716E-01 2.228774610499382636E+00
pair_coeff 5     70    4.147534460805777923E-01 2.306908466707524141E+00
pair_coeff 6      70    4.114317946416216065E-01 2.296253463382908144E+00
pair_coeff 7     70    4.114317946416216065E-01 2.296253463382908144E+00
pair_coeff 8     70    4.114317946416216065E-01 2.296253463382908144E+00
pair_coeff 9     70    3.403642711782671748E-01 2.369984315549452436E+00
pair_coeff 10     70    4.114317946416216065E-01 2.296253463382908144E+00
pair_coeff 11     70    4.114317946416216065E-01 2.296253463382908144E+00
pair_coeff 12      70    2.709162932331031781E-01 2.453646898458591963E+00
pair_coeff 13    70    4.302135444964862165E-02 3.340923226938115054E+00
pair_coeff 14    70    1.584477717956855047E-01 2.904795040652100369E+00
pair_coeff 15    70    3.295766478763905716E-01 2.615872541507785698E+00
pair_coeff 16    70    4.789880153488779158E-01 2.510117776321816319E+00
pair_coeff 17    70    5.782097536577677221E-01 2.497370745143705939E+00
pair_coeff 18   70    3.560990341007065352E-01 2.578445272956105150E+00
pair_coeff 19    70    3.646818179386565606E-01 2.507864100562072096E+00
pair_coeff 20     70    1.769774750163259913E-01 1.997492909224773072E+00
pair_coeff 21      70    0.000000000000000000E+00 0.000000000000000000E+00
pair_coeff 22    70    0.000000000000000000E+00 0.000000000000000000E+00
pair_coeff 23      70    7.101071414248384395E-01 2.358097177009347067E+00
pair_coeff 24   70    1.502386642309327724E+00 1.597688860942628741E+00
pair_coeff 25   70    1.502386642309327724E+00 1.597688860942628741E+00
pair_coeff 26     70    0.000000000000000000E+00 0.000000000000000000E+00
pair_coeff 27   70    1.106997321149905122E+00 1.681117482676084629E+00
pair_coeff 28   70    2.876113908353647441E-01 1.802773452022052636E+00
pair_coeff 29   70    3.662232044351344529E-01 2.174665717868782711E+00
pair_coeff 30     70    5.134478628509925313E-01 2.394230922729341682E+00
pair_coeff 31      70    2.468865591596759723E-01 2.353325024008075417E+00
pair_coeff 32     70    5.763640826414281326E-01 2.415195155140145822E+00
pair_coeff 33     70    8.789740948174059598E-01 2.477381954232469763E+00
pair_coeff 34   70    5.187866388494037917E-01 2.460509112293086442E+00
pair_coeff 35   70    3.814707995138282293E-01 2.311019971405739337E+00
pair_coeff 36    70    7.511205062526553344E-02 2.290643472851174423E+00
pair_coeff 37    70    4.236727957739777617E-01 2.623997756297280493E+00
pair_coeff 38   70    3.356002855827399101E-01 2.390793155000958237E+00
pair_coeff 39  70    5.758109034638668744E-01 2.404797236536131866E+00
pair_coeff 40   70    1.478606180871174514E-01 1.924093842806378074E+00
pair_coeff 41  70    5.858420401700457081E-01 2.446364943686976545E+00
pair_coeff 42  70    4.789880153488779158E-01 2.510117776321816319E+00
pair_coeff 43  70    5.190637964627597967E-01 2.196075677037649054E+00
pair_coeff 44   70    2.454186650227814237E-01 2.518804491957598035E+00
pair_coeff 45  70    5.472970357193517321E-01 2.407442033882686516E+00
pair_coeff 46   70    3.029298080889223921E-01 2.274440006244081047E+00
pair_coeff 47   70    3.276951570843523731E-01 2.377056918505081384E+00
pair_coeff 48  70    3.599087420518621294E-01 2.567069049484753673E+00
pair_coeff 49   70    4.741181493550025716E-01 2.228774610499382636E+00
pair_coeff 50  70    3.409758323607505748E-01 2.510785189426758102E+00
pair_coeff 51  70    4.821661475142233755E-01 2.230711026404406550E+00
pair_coeff 52  70    4.337642356672424815E-01 2.337461203423603529E+00
pair_coeff 53   70    4.789880153488779158E-01 2.510117776321816319E+00
pair_coeff 54      70    9.624893257944396874E-01 2.543942360979170036E+00
pair_coeff 55  70    6.043355625145997445E-01 2.344562657617333290E+00
pair_coeff 56      70    2.709162932331031781E-01 2.453646898458591963E+00
pair_coeff 57     70    7.101071414248384395E-01 2.358097177009347067E+00
pair_coeff 58   70    0.000000000000000000E+00 0.000000000000000000E+00
pair_coeff 59  70    6.043355625145997445E-01 2.344562657617333290E+00
pair_coeff 60  70    8.018673498307147263E-01 2.560520917340021185E+00
pair_coeff 61  70    3.636077195786372451E-01 2.390862032921029723E+00
pair_coeff 62   70    3.935332733664513305E-01 2.561163742645501173E+00
pair_coeff 63   70    2.851615365059002039E-01 2.432779572685431102E+00
pair_coeff 64   70    5.208018028082631590E-01 2.174020391731148916E+00
pair_coeff 65   70    3.973892274549682413E-01 2.615028837263234429E+00
pair_coeff 66   70    4.932491727818341110E-01 2.475512739231275461E+00
pair_coeff 67   70    3.637073185416969667E-01 2.282864724856101368E+00
pair_coeff 68     70    8.045846089363817288E-01 2.385694166082639622E+00
pair_coeff 69      70    8.045846089363817288E-01 2.385694166082639622E+00
pair_coeff 70    70    1.106997321149905122E+00 1.681117482676084629E+00

#           bond_id     k_harmonic               r0
bond_coeff 1    3.752390057361376989E+02 1.0000000000E+00
bond_coeff 2    4.469407265774378857E+02 1.0000000000E+00
bond_coeff 3    3.492741395793498782E+02 1.0900000000E+00
bond_coeff 4    1.109292543021032543E+03 1.1200000000E+00
bond_coeff 5    6.002423518164436018E+02 1.2300000000E+00
bond_coeff 6    5.004182600382409305E+02 1.2500000000E+00
bond_coeff 7    4.997323135755258363E+02 1.3200000000E+00
bond_coeff 8    3.750034177820267587E+02 1.3300000000E+00
bond_coeff 9    4.481438814531548473E+02 1.3300000000E+00
bond_coeff 10   4.988771510516252761E+02 1.3300000000E+00
bond_coeff 11   4.506166347992351575E+02 1.3400000000E+00
bond_coeff 12   5.021156787762906788E+02 1.3400000000E+00
bond_coeff 13   4.509063097514340939E+02 1.3600000000E+00
bond_coeff 14   5.006787762906309922E+02 1.3800000000E+00
bond_coeff 15   3.999040630975143245E+02 1.3900000000E+00
bond_coeff 16   4.987256214149139169E+02 1.3900000000E+00
bond_coeff 17   4.000573613766730432E+02 1.4000000000E+00
bond_coeff 18   3.997916347992352257E+02 1.4300000000E+00
bond_coeff 19   4.501321462715105213E+02 1.4300000000E+00
bond_coeff 20   3.002216180688336635E+02 1.4350000000E+00
bond_coeff 21   4.498431883365200861E+02 1.4700000000E+00
bond_coeff 22   2.999759082217973400E+02 1.4800000000E+00
bond_coeff 23   3.999678776290630822E+02 1.4800000000E+00
bond_coeff 24   4.502256214149139737E+02 1.4800000000E+00
bond_coeff 25   4.501075525812619276E+02 1.5000000000E+00
bond_coeff 26   2.998439770554493293E+02 1.5200000000E+00
bond_coeff 27   4.000342973231357746E+02 1.5300000000E+00
bond_coeff 28   2.998509560229445583E+02 1.6100000000E+00
bond_coeff 29   2.997267686424473823E+02 1.6300000000E+00
bond_coeff 30   2.059762906309751429E+02 1.7800000000E+00
bond_coeff 31   4.498158699808795404E+02 1.7800000000E+00
bond_coeff 32   4.498283460803058915E+02 1.8300000000E+00
bond_coeff 33   3.000447179732313998E+02 1.8700000000E+00
bond_coeff 34   5.996787762906310348E+01 1.9800000000E+00
bond_coeff 35   6.003824091778202643E+01 2.0000000000E+00
bond_coeff 36   5.003070745697896768E+02 2.0400000000E+00
bond_coeff 37   6.303570745697896882E+01 2.2100000000E+00
bond_coeff 38   5.544933078393881942E+02 1.0000000000E+00
bond_coeff 39   3.499282982791586960E+02 1.1000000000E+00
bond_coeff 40   5.997939651051625560E+02 1.7580000000E+00
bond_coeff 41   4.498287762906309695E+02 1.5300000000E+00
bond_coeff 42   4.443412045889101023E+02 1.9379900000E+00
bond_coeff 43   5.996787762906310491E+02 1.7600000000E+00
bond_coeff 44   5.010264698852772653E+02 1.2650000000E+00
bond_coeff 45   4.486555927342256496E+02 1.3500000000E+00
bond_coeff 46   5.551285014340344333E+02 1.6329900000E+00
bond_coeff 47   3.502490798279158639E+02 2.3383900000E+00
bond_coeff 48   6.001610301147227347E+02 2.9028300000E+00
bond_coeff 49   4.458838312619503199E+02 2.7938800000E+00
bond_coeff 50   4.438154039196940630E+02 2.9118900000E+00
bond_coeff 51   4.093283460803059484E+02 2.0770000000E+00
bond_coeff 52   6.001731835564053199E+02 2.8740700000E+00
bond_coeff 53   8.843212237093690931E+01 1.1000000000E+00
bond_coeff 54   5.616634799235181674E+01 1.8400000000E+00
bond_coeff 55   5.138623326959847191E+02 1.0100000000E+00
bond_coeff 56   3.107074569789675138E+02 1.4100000000E+00
bond_coeff 57   4.421606118546845323E+02 1.0200000000E+00
bond_coeff 58   2.390057361376672986E+02 1.4600000000E+00
bond_coeff 59   5.138623326959847191E+02 1.2900000000E+00
bond_coeff 60   4.421606118546845323E+02 9.7200000000E-01
bond_coeff 61   8.126195028680688210E+02 1.2200000000E+00
bond_coeff 62   4.660611854684512423E+02 1.2200000000E+00
bond_coeff 63   2.390057361376672986E+02 1.5400000000E+00
bond_coeff 64   1.792543021032504669E+02 1.5600000000E+00
bond_coeff 65   2.270554493307839437E+02 1.5400000000E+00
bond_coeff 66   1.063575525812619560E+02 1.7600000000E+00
bond_coeff 67   1.314531548757170185E+02 1.6900000000E+00
bond_coeff 68   2.031548757170172053E+02 1.7500000000E+00
bond_coeff 69   2.031548757170172053E+02 1.5100000000E+00
bond_coeff 70   1.434034416826003735E+02 1.5700000000E+00
bond_coeff 71   1.792543021032504669E+02 9.7100000000E-01
bond_coeff 72   1.912045889101338503E+02 1.5000000000E+00
bond_coeff 73   2.629063097514340370E+02 1.4500000000E+00
bond_coeff 74   5.497131931166347840E+02 1.5200000000E+00
bond_coeff 75   8.365200764818355594E+01 1.0300000000E+00
bond_coeff 76   1.912045889101338503E+02 1.7400000000E+00
bond_coeff 77   1.912045889101338503E+02 1.7200000000E+00
bond_coeff 78   2.270554493307839437E+02 1.6400000000E+00
bond_coeff 79   2.031548757170172053E+02 1.6700000000E+00
bond_coeff 80   1.912045889101338503E+02 1.6600000000E+00
bond_coeff 81   2.151051625239005887E+02 1.6500000000E+00
bond_coeff 82   5.138623326959847191E+02 1.3100000000E+00
bond_coeff 83   1.553537284894837569E+02 1.0100000000E+00
bond_coeff 84   3.585086042065009337E+01 1.8900000000E+00
bond_coeff 85   1.015774378585086026E+02 1.9300000000E+00
bond_coeff 86   1.553537284894837569E+02 1.3600000000E+00
bond_coeff 87   1.673040152963671119E+02 1.7900000000E+00
bond_coeff 88   1.147227533460803102E+02 1.3500000000E+00
bond_coeff 89   1.553537284894837569E+02 1.3900000000E+00
bond_coeff 90   2.031548757170172053E+02 1.3800000000E+00
bond_coeff 91   2.270554493307839437E+02 9.8300000000E-01
bond_coeff 92   1.553537284894837569E+02 1.3000000000E+00
bond_coeff 93   4.182600382409177655E+02 1.0800000000E+00
bond_coeff 94   1.553537284894837569E+02 1.9000000000E+00
bond_coeff 95   1.314531548757170185E+03 1.1600000000E+00
bond_coeff 96   1.434034416826003735E+02 1.8000000000E+00
bond_coeff 97   1.553537284894837569E+02 1.4200000000E+00
bond_coeff 98   4.780114722753345973E+02 9.8400000000E-01
bond_coeff 99   1.195028680688336493E+02 1.0800000000E+00
bond_coeff 100  1.195028680688336493E+02 1.9100000000E+00
bond_coeff 101  4.182600382409177655E+02 1.0300000000E+00
bond_coeff 102  5.258126195028680741E+02 1.2800000000E+00
bond_coeff 103  1.314531548757170185E+02 1.2200000000E+00
bond_coeff 104  1.434034416826003735E+02 1.1100000000E+00
bond_coeff 105  1.195028680688336635E+03 1.2100000000E+00
bond_coeff 106  4.660611854684512423E+02 1.0700000000E+00
bond_coeff 107  9.560229445506691945E+02 1.2100000000E+00
bond_coeff 108  6.931166347992351575E+02 1.2100000000E+00
bond_coeff 109  8.723709369024857097E+01 1.8500000000E+00
bond_coeff 110  3.943594646271510555E+02 1.1100000000E+00
bond_coeff 111  1.099426386233269568E+02 2.0900000000E+00
bond_coeff 112  1.314531548757170185E+02 1.8200000000E+00
bond_coeff 113  9.918738049713192595E+01 1.9600000000E+00
bond_coeff 114  5.616634799235181674E+01 1.8600000000E+00
bond_coeff 115  1.673040152963671119E+02 1.2100000000E+00
bond_coeff 116  1.673040152963671119E+02 1.2800000000E+00
bond_coeff 117  1.434034416826003735E+02 1.7100000000E+00
bond_coeff 118  1.314531548757170185E+02 1.6000000000E+00
bond_coeff 119  4.541108986615678873E+02 1.2100000000E+00
bond_coeff 120  4.182600382409177797E+01 1.6100000000E+00
bond_coeff 121  1.314531548757170185E+02 1.9400000000E+00
bond_coeff 122  1.553537284894837569E+02 1.5900000000E+00
bond_coeff 123  1.434034416826003735E+02 2.1000000000E+00
bond_coeff 124  1.195028680688336493E+02 2.1200000000E+00
bond_coeff 125  5.736137667304015508E+01 2.1300000000E+00
bond_coeff 126  2.031548757170172053E+02 1.2600000000E+00
bond_coeff 127  1.195028680688336635E+03 1.1400000000E+00
bond_coeff 128  1.912045889101338503E+02 1.2300000000E+00
bond_coeff 129  7.887189292543021111E+02 1.3000000000E+00
bond_coeff 130  2.390057361376672986E+02 1.3100000000E+00
bond_coeff 131  5.975143403441682466E+01 2.0400000000E+00
bond_coeff 132  8.245697896749521760E+01 1.3400000000E+00
bond_coeff 133  6.214149139579350276E+02 9.3800000000E-01
bond_coeff 134  3.107074569789675138E+02 1.1600000000E+00
bond_coeff 135  3.465583173996176214E+01 2.0700000000E+00
bond_coeff 136  6.094646271510516300E+01 1.1600000000E+00
bond_coeff 137  9.321223709369024846E+01 2.1600000000E+00
bond_coeff 138  4.302103250478011631E+01 2.2300000000E+00
bond_coeff 139  2.390057361376673128E+01 2.0500000000E+00
bond_coeff 140  8.962715105162524196E+02 1.1900000000E+00
bond_coeff 141  7.289674952198853362E+02 1.4700000000E+00
bond_coeff 142  3.943594646271510555E+02 1.5700000000E+00
bond_coeff 143  1.195028680688336635E+03 1.1800000000E+00
bond_coeff 144  5.497131931166347840E+01 1.8700000000E+00
bond_coeff 145  1.063575525812619617E+03 1.1700000000E+00
bond_coeff 146  2.151051625239005887E+02 1.1300000000E+00
bond_coeff 147  5.975143403441682466E+01 2.0200000000E+00
bond_coeff 148  1.792543021032504669E+02 1.0700000000E+00
bond_coeff 149  2.509560229445506820E+02 1.1400000000E+00
bond_coeff 150  1.553537284894837569E+02 1.0600000000E+00
bond_coeff 151  5.377629063097514290E+02 1.4600000000E+00
bond_coeff 152  8.126195028680688210E+02 1.1700000000E+00
bond_coeff 153  9.201720841300191012E+01 2.1500000000E+00
bond_coeff 154  2.390057361376672986E+02 1.0400000000E+00
bond_coeff 155  6.094646271510516300E+01 1.4000000000E+00
bond_coeff 156  1.314531548757170185E+03 1.1100000000E+00
bond_coeff 157  4.660611854684512423E+02 1.5600000000E+00
bond_coeff 158  7.528680688336520461E+02 1.4900000000E+00
bond_coeff 159  5.019120458891013641E+02 1.5400000000E+00
bond_coeff 160  3.585086042065009337E+01 2.1700000000E+00
bond_coeff 161  3.585086042065009337E+01 2.2700000000E+00
bond_coeff 162  6.692160611854684475E+02 1.4500000000E+00
bond_coeff 163  7.648183556405354011E+02 1.2500000000E+00
bond_coeff 164  8.484703632887188860E+02 1.2700000000E+00
bond_coeff 165  5.616634799235181390E+02 1.1600000000E+00
bond_coeff 166  1.434034416826003735E+03 1.1400000000E+00
bond_coeff 167  5.019120458891013641E+02 1.1700000000E+00
bond_coeff 168  5.377629063097514290E+02 1.1900000000E+00
bond_coeff 169  9.201720841300191296E+02 1.1400000000E+00
bond_coeff 170  2.270554493307839437E+02 1.2400000000E+00
bond_coeff 171  1.434034416826003735E+03 1.1300000000E+00
bond_coeff 172  8.962715105162523344E+01 2.9100000000E+00
bond_coeff 173  5.736137667304015508E+01 2.2400000000E+00
bond_coeff 174  4.182600382409177655E+02 7.4300000000E-01
bond_coeff 175  2.390057361376672986E+02 1.2000000000E+00
bond_coeff 176  1.111376673040152951E+02 2.3300000000E+00
bond_coeff 177  9.679732313575526348E+01 2.4200000000E+00
bond_coeff 178  8.365200764818355594E+01 1.3200000000E+00
bond_coeff 179  1.159177820267686457E+03 1.2000000000E+00
bond_coeff 180  1.314531548757170185E+03 1.2000000000E+00
bond_coeff 181  4.302103250478011773E+02 1.5800000000E+00
bond_coeff 182  5.377629063097514717E+01 1.4700000000E+00
bond_coeff 183  1.553537284894837445E+00 2.7700000000E+00
bond_coeff 184  5.138623326959846693E+00 2.2500000000E+00
bond_coeff 185  1.003824091778202643E+02 2.1800000000E+00
bond_coeff 186  5.019120458891013214E+01 1.5200000000E+00
bond_coeff 187  9.321223709369024846E+01 2.1900000000E+00
bond_coeff 188  2.748565965583173920E+01 1.4800000000E+00
bond_coeff 189  1.912045889101338389E+03 1.0700000000E+00
bond_coeff 190  8.604206500956022907E+00 2.8000000000E+00
bond_coeff 191  8.723709369024857097E+01 2.5200000000E+00
bond_coeff 192  6.692160611854685026E-01 2.7900000000E+00
bond_coeff 193  8.126195028680688210E+02 1.1600000000E+00
bond_coeff 194  1.792543021032504846E+00 2.6800000000E+00
bond_coeff 195  4.063097514340344105E+02 1.5900000000E+00
bond_coeff 196  1.195028680688336493E+02 1.1800000000E+00
bond_coeff 197  3.465583173996176214E+01 2.5400000000E+00
bond_coeff 198  1.792543021032504839E+03 1.1000000000E+00
bond_coeff 199  8.245697896749521760E+02 1.2900000000E+00
bond_coeff 200  3.346080305927342380E+01 2.4400000000E+00
bond_coeff 201  1.075525812619502943E+02 2.4100000000E+00
bond_coeff 202  1.123326959847036335E+02 2.3600000000E+00
bond_coeff 203  2.031548757170171982E+01 1.4300000000E+00
bond_coeff 204  2.270554493307839206E+00 2.5700000000E+00
bond_coeff 205  1.912045889101338503E+01 2.4700000000E+00
bond_coeff 206  7.648183556405353523E-01 2.7100000000E+00
bond_coeff 207  1.553537284894837512E+03 1.1200000000E+00
bond_coeff 208  3.704588910133843171E+00 2.7500000000E+00
bond_coeff 209  5.019120458891013641E+02 1.1400000000E+00
bond_coeff 210  7.170172084130018719E-01 2.8600000000E+00
bond_coeff 211  1.051625239005736212E+01 2.6400000000E+00
bond_coeff 212  1.912045889101338389E+03 9.8500000000E-01
bond_coeff 213  1.912045889101338547E+00 2.6100000000E+00
bond_coeff 214  7.409177820267686343E+00 2.6200000000E+00
bond_coeff 215  5.975143403441682466E+01 2.4600000000E+00
bond_coeff 216  3.585086042065009693E+00 2.6600000000E+00
bond_coeff 217  1.314531548757170265E+00 2.7200000000E+00
bond_coeff 218  5.855640535372849342E+01 1.6300000000E+00
bond_coeff 219  5.736137667304014940E+02 1.1200000000E+00
bond_coeff 220  3.704588910133843171E+01 2.3200000000E+00
bond_coeff 221  1.673040152963671190E+01 1.4400000000E+00
bond_coeff 222  1.553537284894837512E+03 1.1600000000E+00
bond_coeff 223  7.170172084130019385E+00 2.6900000000E+00
bond_coeff 224  1.003824091778202643E+01 2.4900000000E+00
bond_coeff 225  3.226577437858508812E+00 2.9200000000E+00
bond_coeff 226  8.245697896749522027E-01 2.2900000000E+00
bond_coeff 227  9.799235181644359471E+00 2.4000000000E+00
bond_coeff 228  1.039674952198852864E+00 2.3700000000E+00
bond_coeff 229  1.553537284894837445E+00 2.9400000000E+00
bond_coeff 230  5.855640535372849342E+00 2.9500000000E+00
bond_coeff 231  1.673040152963671146E+00 2.9600000000E+00
bond_coeff 232  1.314531548757170119E-02 2.5600000000E+00
bond_coeff 233  5.258126195028681060E+00 2.5900000000E+00
bond_coeff 234  1.553537284894837533E+01 2.3800000000E+00
bond_coeff 235  8.365200764818355310E+02 1.1200000000E+00
bond_coeff 236  1.912045889101338547E+00 2.5000000000E+00
bond_coeff 237  2.390057361376673128E+00 2.3000000000E+00
bond_coeff 238  5.855640535372848490E+02 1.0400000000E+00
bond_coeff 239  3.346080305927342291E+00 2.9900000000E+00
bond_coeff 240  9.679732313575526437E-01 2.3400000000E+00
bond_coeff 241  1.075525812619502863E+00 2.9800000000E+00
bond_coeff 242  2.270554493307839206E+00 2.7400000000E+00
bond_coeff 243  1.063575525812619617E+03 1.1600000000E+00
bond_coeff 244  8.126195028680688210E+02 1.5000000000E+00
bond_coeff 245  1.314531548757170265E+00 2.8400000000E+00
bond_coeff 246  3.226577437858508812E-01 2.8200000000E+00
bond_coeff 247  9.082217973231357746E+02 1.2300000000E+00
bond_coeff 248  4.660611854684512423E+02 1.0500000000E+00
bond_coeff 249  3.346080305927342291E+00 2.8800000000E+00
bond_coeff 250  1.434034416826003735E+03 1.1800000000E+00
bond_coeff 251  1.673040152963671062E+03 1.1500000000E+00
bond_coeff 252  6.333652007648183258E+00 2.9000000000E+00
bond_coeff 253  1.027724665391969438E+03 1.2400000000E+00
bond_coeff 254  4.182600382409177655E+02 1.9000000000E+00
bond_coeff 255  2.270554493307839493E+03 1.0800000000E+00
bond_coeff 256  1.434034416826003735E+03 1.2100000000E+00
bond_coeff 257  7.648183556405354011E+02 9.7500000000E-01

# Dummy bond for extra excluded interactions
bond_coeff 258  0.000000000000000000E+00 0.0000000000E+00

#            angle_id     k_harmonic               theta0
angle_coeff 1    4.531159764110539356E+01 9.0000000000E+01
angle_coeff 2    5.009172539172424621E+01 9.0000000000E+01
angle_coeff 3    4.777119165305969517E+01 9.6000000000E+01
angle_coeff 4    5.495507667712937661E+01 1.0000000000E+02
angle_coeff 5    4.755587910082016379E+01 1.0300000000E+02
angle_coeff 6    5.503449877865421058E+01 1.0400000000E+02
angle_coeff 7    5.017089249514589966E+01 1.0800000000E+02
angle_coeff 8    3.017313270271808179E+01 1.0950000000E+02
angle_coeff 9    3.388969514161131968E+01 1.0950000000E+02
angle_coeff 10   4.026093651823891406E+01 1.0950000000E+02
angle_coeff 11   4.503936558918574207E+01 1.0950000000E+02
angle_coeff 12   4.769404884227261476E+01 1.0950000000E+02
angle_coeff 13   5.512715332021083015E+01 1.0950000000E+02
angle_coeff 14   4.763495597414375737E+01 1.0960000000E+02
angle_coeff 15   5.511390518798809524E+01 1.1100000000E+02
angle_coeff 16   5.509974690868934033E+01 1.1300000000E+02
angle_coeff 17   4.824003116558784221E+00 1.1500000000E+02
angle_coeff 18   4.506986336232746027E+01 1.1500000000E+02
angle_coeff 19   5.979372060785910747E+01 1.1500000000E+02
angle_coeff 20   4.480849815265150937E+01 1.1600000000E+02
angle_coeff 21   5.977192415460783081E+01 1.1600000000E+02
angle_coeff 22   6.016393470016820544E+01 1.1700000000E+02
angle_coeff 23   3.487998772914675527E+01 1.2000000000E+02
angle_coeff 24   3.980949179939617721E+01 1.2000000000E+02
angle_coeff 25   4.518712718236594128E+01 1.2000000000E+02
angle_coeff 26   4.742781120730183630E+01 1.2000000000E+02
angle_coeff 27   5.011662889878671479E+01 1.2000000000E+02
angle_coeff 28   5.997562448553279069E+01 1.2000000000E+02
angle_coeff 29   6.983461614923112393E+01 1.2000000000E+02
angle_coeff 30   6.007257868741400131E+01 1.2100000000E+02
angle_coeff 31   6.009101308875088421E+01 1.2200000000E+02
angle_coeff 32   3.481463446143215634E+01 1.2300000000E+02
angle_coeff 33   5.989285210123679093E+01 1.2400000000E+02
angle_coeff 34   3.000747691187498489E+01 1.2500000000E+02
angle_coeff 35   6.007786695576940872E+01 1.2500000000E+02
angle_coeff 36   4.491393398374964363E+01 1.2600000000E+02
angle_coeff 37   4.999795670460907360E+01 1.2600000000E+02
angle_coeff 38   6.016599430023244111E+01 1.2600000000E+02
angle_coeff 39   5.011888465123802661E+01 1.3200000000E+02
angle_coeff 40   4.751869253127933490E+01 1.5500000000E+02
angle_coeff 41   2.849707999314575346E+01 1.8000000000E+02
angle_coeff 42   4.599505140337510767E+01 1.0950000000E+02
angle_coeff 43   5.247673834306662144E+01 1.0757000000E+02
angle_coeff 44   6.547197129315762254E+01 1.1130000000E+02
angle_coeff 45   5.501891643302533197E+01 9.7400000000E+01
angle_coeff 46   5.502468723625295155E+01 1.0675000000E+02
angle_coeff 47   4.750189404085062250E+01 1.0853000000E+02
angle_coeff 48   6.553349252783840484E+01 1.0950000000E+02
angle_coeff 49   5.495659489660530284E+01 1.0760000000E+02
angle_coeff 50   4.748167072974365510E+01 1.0950000000E+02
angle_coeff 51   5.499310277888685761E+01 1.1030000000E+02
angle_coeff 52   5.502340047659377120E+01 1.1140000000E+02
angle_coeff 53   6.004396397718814882E+01 1.1720000000E+02
angle_coeff 54   6.000230905626986555E+01 1.2140000000E+02
angle_coeff 55   4.824003116558784399E+01 1.8000000000E+02
angle_coeff 56   1.804601961048520877E+02 1.0900000000E+02
angle_coeff 57   1.922293393290815686E+02 1.0600000000E+02
angle_coeff 58   1.451527664321636166E+02 1.2600000000E+02
angle_coeff 59   1.451527664321636166E+02 9.6200000000E+01
angle_coeff 60   1.569219096563931259E+02 1.1400000000E+02
angle_coeff 61   2.039984825533110495E+02 1.1900000000E+02
angle_coeff 62   2.393059122259994922E+02 1.3000000000E+02
angle_coeff 63   2.981516283471469251E+02 1.0700000000E+02
angle_coeff 64   1.569219096563931259E+02 1.3400000000E+02
angle_coeff 65   2.393059122259994922E+02 1.0100000000E+02
angle_coeff 66   2.863824851229174442E+02 1.1300000000E+02
angle_coeff 67   3.687664876925238104E+02 1.3400000000E+02
angle_coeff 68   3.569973444682943295E+02 1.1900000000E+02
angle_coeff 69   3.334590580198353678E+02 1.2600000000E+02
angle_coeff 70   2.510750554502289731E+02 8.9600000000E+01
angle_coeff 71   3.805356309167532913E+02 1.1400000000E+02
angle_coeff 72   2.863824851229174442E+02 1.3500000000E+02
angle_coeff 73   1.451527664321636166E+02 8.8300000000E+01
angle_coeff 74   1.333836232079341642E+02 6.0000000000E+01
angle_coeff 75   3.805356309167532913E+02 1.7900000000E+02
angle_coeff 76   2.510750554502289731E+02 1.8000000000E+02
angle_coeff 77   4.707657289691792926E+02 1.7800000000E+02
angle_coeff 78   4.707657289691793068E+01 5.9900000000E+01
angle_coeff 79   4.707657289691793068E+01 6.0300000000E+01
angle_coeff 80   2.510750554502289731E+02 1.2400000000E+02
angle_coeff 81   7.061485934537689673E+02 1.1800000000E+02
angle_coeff 82   1.176914322422948231E+02 1.4400000000E+02
angle_coeff 83   6.276876386255725038E+02 1.2300000000E+02
angle_coeff 84   4.707657289691792926E+02 1.1800000000E+02
angle_coeff 85   3.334590580198353678E+02 9.4800000000E+01
angle_coeff 86   9.023009805242604386E+01 1.7500000000E+02
angle_coeff 87   1.569219096563931259E+02 8.2800000000E+01
angle_coeff 88   1.176914322422948231E+02 7.7600000000E+01
angle_coeff 89   2.393059122259994922E+02 1.4500000000E+02
angle_coeff 90   2.510750554502289731E+02 5.0800000000E+01
angle_coeff 91   3.805356309167532913E+02 1.0400000000E+02
angle_coeff 92   2.628441986744584824E+02 8.4400000000E+01
angle_coeff 93   2.157676257775405304E+02 6.3300000000E+01
angle_coeff 94   2.157676257775405304E+02 6.1000000000E+01
angle_coeff 95   2.981516283471469251E+02 1.7300000000E+02
angle_coeff 96   1.922293393290815686E+02 1.7300000000E+02
angle_coeff 97   8.238400256960638046E+01 5.0900000000E+01
angle_coeff 98   4.315352515550810608E+02 1.2700000000E+02
angle_coeff 99   6.276876386255724327E+01 6.7800000000E+01
angle_coeff 100  1.569219096563931259E+02 1.8000000000E+02
angle_coeff 101  5.884571612114741583E+02 1.1800000000E+02
angle_coeff 102  3.017313270271808179E+01 1.1000000000E+02
angle_coeff 103  2.275367690017699829E+02 9.4800000000E+01
angle_coeff 104  4.315352515550810608E+02 1.7300000000E+02
angle_coeff 105  3.452282012440647918E+01 7.8500000000E+01
angle_coeff 106  7.061485934537689957E+01 1.3800000000E+02
angle_coeff 107  7.061485934537689957E+01 1.6800000000E+02
angle_coeff 108  1.569219096563931259E+02 1.6700000000E+02
angle_coeff 109  1.804601961048520664E+01 1.4900000000E+02
angle_coeff 110  3.334590580198353678E+02 1.4400000000E+02
angle_coeff 111  3.569973444682943295E+02 1.4800000000E+02
angle_coeff 112  3.216899147956058300E+02 1.4400000000E+02
angle_coeff 113  3.569973444682943295E+02 1.4800000000E+02
angle_coeff 114  3.216899147956058300E+02 1.4700000000E+02
angle_coeff 115  3.334590580198353678E+02 1.4400000000E+02
angle_coeff 116  5.099962063832776039E+03 6.0800000000E+01
angle_coeff 117  1.451527664321636394E+03 6.8000000000E+01
angle_coeff 118  2.981516283471469251E+02 1.6100000000E+02
angle_coeff 119  1.569219096563931259E+02 1.5500000000E+02
angle_coeff 120  3.099207715713764060E+02 1.5400000000E+02
angle_coeff 121  2.157676257775405304E+02 7.5300000000E+01
angle_coeff 122  3.099207715713764060E+02 6.4700000000E+01
angle_coeff 123  5.492266837973758129E+02 1.7300000000E+02
angle_coeff 124  3.334590580198353564E+03 4.5800000000E+01
angle_coeff 125  8.630705031101621216E+02 1.2300000000E+02
angle_coeff 126  5.492266837973758129E+02 1.2300000000E+02
angle_coeff 127  4.707657289691792926E+02 1.6600000000E+02
angle_coeff 128  3.805356309167532913E+02 1.6600000000E+02
angle_coeff 129  2.039984825533110495E+02 1.3900000000E+02
angle_coeff 130  6.669181160396708208E+01 1.6100000000E+02
angle_coeff 131  7.453790708678672772E+00 4.4900000000E+01
angle_coeff 132  2.510750554502289944E+01 8.4800000000E+01
angle_coeff 133  1.922293393290815686E+02 1.6100000000E+02
angle_coeff 134  3.334590580198353678E+02 7.0400000000E+01
angle_coeff 135  6.276876386255725038E+02 1.7300000000E+02
angle_coeff 136  1.922293393290815500E+00 5.1600000000E+01
angle_coeff 137  2.157676257775405304E+01 7.3300000000E+01
angle_coeff 138  7.453790708678672772E+00 1.7400000000E+02
angle_coeff 139  4.707657289691792926E+02 1.3200000000E+02
angle_coeff 140  1.451527664321636166E+02 6.9900000000E+01
angle_coeff 141  1.569219096563931082E+01 1.4400000000E+02
angle_coeff 142  1.922293393290815629E+03 9.7900000000E+01
angle_coeff 143  3.923047741409827722E+02 1.5500000000E+02
angle_coeff 144  5.884571612114741583E+02 1.0400000000E+02
angle_coeff 145  1.176914322422948231E+02 1.4900000000E+02
angle_coeff 146  5.099962063832776380E+02 1.5700000000E+02
angle_coeff 147  2.863824851229174442E+02 1.6600000000E+02
angle_coeff 148  3.334590580198353678E+02 8.9800000000E+01
angle_coeff 149  3.923047741409827722E+02 7.9100000000E+01
angle_coeff 150  6.669181160396707128E+03 4.5200000000E+01
angle_coeff 151  4.707657289691792926E+02 1.0100000000E+02
angle_coeff 152  7.453790708678671990E+02 1.2500000000E+02
angle_coeff 153  1.686910528806225784E+02 4.9600000000E+01
angle_coeff 154  5.099962063832776380E+02 1.1200000000E+02
angle_coeff 155  4.707657289691792926E+02 1.0700000000E+02
angle_coeff 156  2.981516283471469251E+02 5.9600000000E+01
angle_coeff 157  2.393059122259994922E+02 7.0200000000E+01
angle_coeff 158  3.923047741409827722E+03 1.0000000000E+02
angle_coeff 159  3.923047741409827722E+03 1.0000000000E+02
angle_coeff 160  1.059222890180653621E+03 4.6300000000E+01
angle_coeff 161  1.176914322422948317E+03 4.6300000000E+01
angle_coeff 162  4.315352515550810608E+02 9.4100000000E+01
angle_coeff 163  5.099962063832776380E+02 6.9600000000E+01
angle_coeff 164  4.707657289691792926E+02 1.3900000000E+02

#               dihedral_id     k                         n phi0
dihedral_coeff 1    6.381453154875716960E-01 -1  1
dihedral_coeff 2    8.150095602294454844E-01 -1  1
dihedral_coeff 3    1.187858508604206387E+00 -1  1
dihedral_coeff 4    1.400573613766730396E+00 -1  1
dihedral_coeff 5    2.234703632887188984E+00 -1  1
dihedral_coeff 6    2.258604206500955947E+00 -1  1
dihedral_coeff 7    6.668260038240917398E-01  1  1
dihedral_coeff 8    1.278680688336519822E+00  1  1
dihedral_coeff 9    3.656787762906309469E-01 -1  2
dihedral_coeff 10   1.400573613766730396E+00 -1  2
dihedral_coeff 11   1.699330783938814537E+00 -1  2
dihedral_coeff 12   3.991395793499043609E+00 -1  2
dihedral_coeff 13   5.736137667304014975E+00 -1  2
dihedral_coeff 14   8.006692160611853737E+00 -1  2
dihedral_coeff 15   9.990439770554491616E+00 -1  2
dihedral_coeff 16   0.000000000000000000E+00  1  2
dihedral_coeff 17   9.990439770554492005E-02  1  2
dihedral_coeff 18   4.995219885277246141E-01  1  2
dihedral_coeff 19   7.504780114722753304E-01  1  2
dihedral_coeff 20   1.216539196940726431E+00  1  2
dihedral_coeff 21   3.991395793499043609E+00  1  2
dihedral_coeff 22   2.509560229445506607E-01  1  3
dihedral_coeff 23   3.011472275334607929E-01  1  3
dihedral_coeff 24   3.107074569789675111E-01  1  3
dihedral_coeff 25   6.046845124282982376E-01  1  3
dihedral_coeff 26   7.002868068833651982E-01  1  3
dihedral_coeff 27   7.624282982791585894E-01  1  3
dihedral_coeff 28   8.723709369024855720E-01  1  3
dihedral_coeff 29   9.010516252390057268E-01  1  3
dihedral_coeff 30   9.321223709369024224E-01  1  3
dihedral_coeff 31   9.990439770554492283E-01  1  3
dihedral_coeff 32   1.120936902485659692E+00  1  3
dihedral_coeff 33   1.300191204588910132E+00  1  3
dihedral_coeff 34   1.414913957934990307E+00  1  3
dihedral_coeff 35   1.837954110898661453E+00  1  3
dihedral_coeff 36   2.060229445506692070E+00  1  3
dihedral_coeff 37   2.270554493307839206E+00  1  3
dihedral_coeff 38   0.000000000000000000E+00  1  4
dihedral_coeff 39   2.390057361376672906E-01 -1  6
dihedral_coeff 40   2.390057361376672906E-01  1  6
dihedral_coeff 41   9.010516252390057268E-01  1  6
dihedral_coeff 42   8.365200764818354617E-01 -1  2
dihedral_coeff 43   6.692160611854683916E-01  1  3
dihedral_coeff 44   1.673040152963670979E-01 -1  6
dihedral_coeff 45   9.560229445506691903E-02  1  6
dihedral_coeff 46   2.390057361376672906E-01 -1  3

# Dummy dihedral for 1-4 interactions
dihedral_coeff 47 0.0 1 1

#               improper_id     k                        xi0
improper_coeff 1    2.000754348119011894E+01 0.0000000000E+00
improper_coeff 2    4.001508696238023788E+01 3.5264390000E+01
improper_coeff 3    8.003017392476047576E+01 0.0000000000E+00
improper_coeff 4    2.000754348119011894E+01 1.8000000000E+02
improper_coeff 5    4.001508696238023788E+01 -3.5264390000E+01
# Force field setup.
kspace_style    pppm 1e-4



# ----------------- Run Section -----------------

include "benzene_02.in.run"

# Set the velocity to the final temperature.
if "$(is_defined(variable,ti))" then "variable t0 equal ${ti}" else "variable t0 equal ${tf}"
variable t0 equal ${tf}
variable t0 equal 300
velocity all create ${t0} $r dist gaussian
velocity all create 300 $r dist gaussian
velocity all create 300 236516 dist gaussian

# Derived variables.
# thermo interval.
variable d       equal ${cl}*$s
variable d       equal 400*$s
variable d       equal 400*5
# dump interval ("sample interval" frames).
variable dcycle  equal ${prod}/$s
variable dcycle  equal 5000000/$s
variable dcycle  equal 5000000/5
variable tcouple equal ${ts}*100
variable tcouple equal 2*100
variable pcouple equal ${ts}*1000
variable pcouple equal 2*1000

# Physical observables.
compute inter           all inter kspace yes

# Use the COM of the molecule to compute the MSD.
compute ac all chunk/atom molecule
compute  msqdis all msd/chunk ac
# average over all molecules.
variable msqdis equal ave(c_msqdis[4])

# Output.
thermo          $d
thermo          2000
thermo_style custom step etotal evdwl ecoul elong ebond eangle edihed eimp ke pe temp press vol density c_inter v_msqdis cpu
thermo_modify flush yes

# Trajectory.
dump TRJ all dcd ${dcycle} ${run}.dcd
dump TRJ all dcd 1000000 ${run}.dcd
dump TRJ all dcd 1000000 benzene_02.dcd
dump_modify TRJ unwrap yes

# Thermalisation and relaxation, NPT ensemble.
timestep 	 ${ts}
timestep 	 2
fix             NPH all nph iso $p $p ${pcouple}
fix             NPH all nph iso 1 $p ${pcouple}
fix             NPH all nph iso 1 1 ${pcouple}
fix             NPH all nph iso 1 1 2000
fix             TEMP all langevin ${tf} ${tf} ${tcouple} $r
fix             TEMP all langevin 300 ${tf} ${tcouple} $r
fix             TEMP all langevin 300 300 ${tcouple} $r
fix             TEMP all langevin 300 300 200 $r
fix             TEMP all langevin 300 300 200 49935
run    ${prod}
run    5000000
PPPM initialization ...
  using 12-bit tables for long-range coulomb (../kspace.cpp:342)
  G vector (1/distance) = 0.17267821
  grid = 12 12 12
  stencil order = 5
  estimated absolute RMS force accuracy = 0.017255621
  estimated relative force accuracy = 5.1964791e-05
  using double precision KISS FFT
  3d grid and FFT values/proc = 729 96
Generated 0 of 2415 mixed pair_coeff terms from geometric mixing rule
Neighbor list info ...
  update every 1 steps, delay 10 steps, check yes
  max neighbors/atom: 2000, page size: 100000
  master list distance cutoff = 16
  ghost atom cutoff = 16
  binsize = 8, bins = 7 7 7
  2 neighbor lists, perpetual/occasional/extra = 1 1 0
  (1) pair lj/cut/coul/long, perpetual
      attributes: half, newton on
      pair build: half/bin/newton
      stencil: half/bin/3d
      bin: standard
  (2) compute inter, occasional, copy from (1)
      attributes: half, newton on
      pair build: copy
      stencil: none
      bin: none
Per MPI rank memory allocation (min/avg/max) = 13 | 13.01 | 13.01 Mbytes
   Step         TotEng         E_vdwl         E_coul         E_long         E_bond        E_angle        E_dihed        E_impro         KinEng         PotEng          Temp          Press          Volume        Density        c_inter        v_msqdis         CPU      
         0   8970.838      -7619.2963      1830.3553     -6144.9841      4377.2481      3127.1194      981.0644       1689.3093      10730.022     -1759.1839      300           -313.5386       139201.23      0.93182609    -7904.2675      0              0            
      2000   9076.9157     -7541.9668      1855.6194     -6144.8868      4402.7385      3045.5005      943.27743      1705.3023      10811.331     -1734.4153      302.27332     -212.3874       140650.2       0.92222649    -7806.2497      2.1985231      17.517425    
      4000   9034.8066     -7614.3046      1848.7148     -6146.2177      4400.075       3095.9642      968.21218      1688.2379      10794.125     -1759.3183      301.79225      360.59736      140022.02      0.92636382    -7881.56        3.5123761      36.01184     
      6000   8931.0204     -7552.908       1845.1201     -6146.7114      4271.958       3078.9105      926.38911      1727.4914      10780.771     -1849.7502      301.41888      131.45295      140577.74      0.9227018     -7821.7547      4.8308519      54.402021    
      8000   8886.7704     -7638.4113      1837.5021     -6145.3992      4382.1211      3024.5627      944.03867      1657.544       10824.812     -1938.0419      302.65024      593.60656      139772.68      0.9280164     -7912.8238      6.0900986      72.599367    
     10000   8795.1995     -7641.8954      1882.2289     -6144.7645      4301.6197      3082.2885      968.79392      1706.6475      10640.281     -1845.0814      297.49094     -17.220718      140308.44      0.92447282    -7879.4222      7.1493851      90.949595    
     12000   9152.3826     -7586.7835      1852.8602     -6146.0987      4474.2814      3074.6484      938.96722      1697.0144      10847.493     -1695.1106      303.28437     -269.98854      140112.36      0.92576658    -7848.3686      8.113996       109.40822    
     14000   9038.7666     -7561.682       1830.0749     -6145.7686      4337.5191      3058.4012      1018.0518      1668.6279      10833.542     -1794.7757      302.89432      494.34844      140659.7       0.92216417    -7845.2425      9.4190115      127.9977     
     16000   9032.8096     -7484.6443      1875.2995     -6143.7037      4333.3008      3032.3179      934.71366      1698.5967      10786.929     -1754.1194      301.59106     -15.752076      141804.96      0.91471652    -7725.7168      11.076789      146.52161    
     18000   9000.6879     -7462.6739      1881.4759     -6143.7675      4324.78        3044.939       960.29613      1662.6501      10732.988     -1732.3003      300.08293      310.02048      142035.18      0.91323386    -7695.3483      12.48934       164.78998    
     20000   9085.9878     -7518.7845      1857.3292     -6143.1203      4374.3416      3080.7225      970.19373      1698.1513      10767.154     -1681.1665      301.03818      281.38291      141226.53      0.91846294    -7771.9027      13.949149      183.05639    
     22000   9124.9693     -7537.7082      1908.3536     -6144.4791      4362.2375      3055.912       918.53049      1700.0716      10862.051     -1737.0822      303.69141      641.86222      140554.07      0.92285723    -7745.263       15.298791      201.28966    
     24000   9034.9396     -7504.491       1870.3573     -6144.6625      4309.1952      3068.8397      974.88384      1694.1568      10766.66      -1731.7205      301.02437      364.30991      141163.66      0.91887203    -7750.7566      16.447006      219.59184    
     26000   8843.8004     -7531.1238      1863.8136     -6144.3531      4314.1377      3024.0496      937.05474      1681.0086      10699.213     -1855.4127      299.13862     -170.07804      141554.57      0.91633454    -7787.1426      16.881236      237.79949    
     28000   8925.2217     -7496.5567      1845.9764     -6145.0955      4341.8865      3083.8695      960.43968      1711.6002      10623.102     -1697.88        297.01062     -187.48557      140484.6       0.92331359    -7771.0421      18.109863      256.08811    
     30000   8980.8691     -7533.7607      1857.7692     -6144.338       4261.9748      3058.4883      927.54335      1715.9647      10837.227     -1856.3584      302.99735      999.1168       140744.68      0.92160738    -7792.3182      19.855207      274.45286    
     32000   9030.2853     -7587.0396      1862.2676     -6144.5375      4383.2334      3026.6583      919.05717      1711.8295      10858.816     -1828.5311      303.60096     -531.11599      139877.24      0.92732268    -7839.362       21.420182      292.74781    
     34000   8920.15       -7475.2404      1852.4368     -6144.9728      4257.4304      3079.4222      964.27721      1705.2035      10681.593     -1761.4431      298.64598      1219.4205      141487.21      0.91677076    -7736.197       21.965901      310.96647    
     36000   8976.9572     -7483.9091      1872.5711     -6146.3417      4373.6312      2992.621       942.68649      1664.5714      10761.127     -1784.1696      300.86966     -162.73845      141916.26      0.91399912    -7732.7955      23.397622      329.07602    
     38000   9036.958      -7522.4505      1869.1725     -6144.4259      4465.5548      3080.9675      933.605        1685.1847      10669.35      -1632.392       298.30368     -154.65009      140494.08      0.92325129    -7772.7214      24.738456      347.11486    
     40000   8953.4502     -7499.7546      1834.616      -6145.666       4376.3148      3012.834       1000.7095      1687.7861      10686.61      -1733.1603      298.78626     -259.64177      141451.2       0.91700417    -7779.7245      26.299164      365.17155    
     42000   9163.8849     -7587.9515      1880.1782     -6145.5348      4344.7687      3114.6256      935.66425      1699.2507      10922.884     -1758.9989      305.39221      1163.7621      140158.9       0.92545916    -7823.0424      27.203869      383.14037    
     44000   8931.111      -7521.5586      1880.7161     -6144.4552      4296.0001      3062.8705      940.52646      1647.6641      10769.347     -1838.2364      301.0995      -88.548852      141415.42      0.91723619    -7758.7983      28.177962      401.01074    
     46000   9011.752      -7534.3577      1892.389      -6143.8638      4419.6152      3024.7521      965.2638       1714.5778      10673.376     -1661.6237      298.41623      521.35857      140895.02      0.92062399    -7753.9906      29.532043      418.88685    
     48000   9104.1658     -7594.9227      1848.7832     -6145.7477      4377.2377      3092.8332      957.7559       1679.6739      10888.552     -1784.3867      304.43235      70.675324      140185.13      0.925286      -7867.5155      30.851987      436.85321    
     50000   8959.3868     -7581.9842      1833.7393     -6145.4354      4406.5525      3013.131       957.43881      1654.4561      10821.489     -1862.1019      302.55731     -251.68328      140558.11      0.92283067    -7866.9654      32.112203      455.01568    
     52000   9156.3763     -7570.8836      1829.9614     -6145.4371      4415.0436      3053.3178      973.38138      1662.6707      10938.322     -1781.9459      305.82385      533.22908      140678.22      0.92204276    -7861.0611      33.333894      473.23355    
     54000   8875.0926     -7500.1766      1832.7606     -6145.4497      4363.1165      3056.1526      903.95271      1613.4418      10751.295     -1876.202       300.59476      301.81937      140578.68      0.92269564    -7784.743       34.650837      491.49109    
     56000   9094.6915     -7502.0197      1868.3636     -6143.8092      4465.0982      2994.7492      923.52363      1739.6872      10749.099     -1654.4072      300.53337     -589.57774      141455.73      0.9169748     -7749.3743      36.649632      509.79447    
     58000   8762.0337     -7540.7055      1876.9139     -6145.5052      4282.1002      3070.4397      983.12418      1645.4102      10590.256     -1828.2225      296.0923      -204.85133      141068.92      0.91948912    -7783.0419      37.631221      528.12689    
     60000   8781.086      -7553.575       1856.4487     -6143.714       4286.9569      3058.533       944.73339      1666.1354      10665.568     -1884.4815      298.19792      173.76913      141270.35      0.91817805    -7815.2886      38.516234      546.48693    
     62000   8979.131      -7543.8577      1856.4821     -6144.2931      4361.8151      3015.3864      925.08051      1648.9853      10859.532     -1880.4015      303.62098     -679.95461      140693.31      0.92194386    -7802.6631      39.928512      564.81364    
     64000   8907.5379     -7553.8933      1881.5192     -6143.9749      4288.0408      2992.697       941.65585      1643.7567      10857.737     -1950.1987      303.57077     -23.917826      140432.35      0.92365712    -7790.1855      42.47058       583.1123     
     66000   9054.8329     -7579.7204      1841.1121     -6143.1336      4434.4903      3061.4876      958.49846      1689.4393      10792.659     -1737.8262      301.75127     -755.79073      140962.89      0.92018077    -7853.585       44.020387      601.56423    
     68000   9174.6757     -7543.8847      1852.8378     -6144.0084      4409.6762      3005.9913      1024.1001      1693.0659      10876.898     -1702.2218      304.10649     -550.26453      140760.67      0.92150273    -7803.1429      45.174323      619.97285    
     70000   8916.049      -7600.4336      1844.5216     -6143.0261      4450.749       2985.1731      947.17108      1684.5169      10747.377     -1831.3281      300.48523      237.19939      140325.33      0.92436152    -7872.8835      46.60836       638.58758    
     72000   8747.7596     -7594.7358      1867.0696     -6144.9986      4350.8132      3064.9464      922.27466      1653.7808      10628.609     -1880.8497      297.16461     -186.83944      139993.12      0.92655511    -7844.9801      48.224208      656.88662    
     74000   8921.92       -7568.6568      1852.3326     -6144.5215      4291.136       3033.3275      942.9677       1685.6428      10829.692     -1907.7717      302.78666      847.55437      140263.28      0.92477044    -7831.7337      49.28123       675.37019    
     76000   8916.0101     -7533.3141      1867.4605     -6144.9282      4330.7059      2979.2101      907.40806      1647.3389      10862.129     -1946.1188      303.69357     -723.9718       141348.36      0.91767135    -7785.6744      50.420882      693.54877    
     78000   8818.249      -7567.2252      1829.6238     -6143.9438      4365.8119      3098.5009      929.35509      1680.4325      10625.694     -1807.4448      297.0831      -1297.9403      140873.88      0.92076216    -7857.5227      51.012345      711.80636    
     80000   9071.0745     -7540.0356      1844.3193     -6145.2865      4351.0527      3071.1242      949.54656      1684.5981      10855.756     -1784.6813      303.51539     -703.63224      140308.4       0.92447306    -7808.1481      51.61336       730.01377    
     82000   9063.6453     -7496.1016      1858.476      -6144.4465      4367.0018      3018.6767      990.91192      1655.9928      10813.134     -1749.4889      302.32373      260.84999      142143.68      0.91253679    -7751.5525      52.559403      748.30269    
     84000   8803.3093     -7611.0919      1868.5262     -6146.0192      4385.8349      3027.9624      947.09995      1694.3625      10636.634     -1833.3252      297.38898      288.09695      139849.34      0.92750769    -7860.7297      54.010858      766.77717    
     86000   8745.8915     -7530.4111      1823.8845     -6144.6874      4358.0855      3004.3499      915.45791      1654.9319      10664.28      -1918.3888      298.16193      29.284247      140574.8       0.92272111    -7824.5952      54.546639      785.3814     
     88000   8953.198      -7555.943       1849.7625     -6145.4685      4404.3216      3046.0729      948.54257      1675.8059      10730.104     -1776.906       300.00229     -388.17852      140772.47      0.92142548    -7823.9065      54.894606      803.87141    
     90000   9035.848      -7500.0538      1877.8728     -6144.3547      4407.5191      3047.0958      945.6761       1662.244       10739.849     -1704.0007      300.27475     -1124.203       141257.47      0.91826176    -7744.2421      56.484885      822.12344    
     92000   8889.5018     -7547.0661      1840.5113     -6145.315       4276.0815      3042.2781      942.20195      1685.5727      10795.237     -1905.7355      301.82335     -1279.8652      140840.92      0.92097761    -7821.4328      57.605985      840.31654    
     94000   9080.6228     -7477.137       1868.9233     -6143.4249      4359.2356      3003.1437      941.53941      1634.1041      10894.238     -1813.6156      304.59132      646.74259      141426.43      0.91716474    -7727.36        58.520451      858.5157     
     96000   9007.0795     -7575.0032      1858.1366     -6144.8665      4381.1213      2991.9322      936.01102      1663.9003      10895.848     -1888.7683      304.63632     -210.32125      140636.73      0.92231477    -7835.95        59.551563      876.66563    
     98000   8975.0233     -7566.7387      1872.9211     -6144.4322      4354.3653      3019.5362      932.99833      1652.3204      10854.053     -1879.0295      303.46777      551.75395      140959.08      0.92020562    -7814.5823      60.304421      894.81751    
    100000   8706.1233     -7480.5308      1850.584      -6141.7589      4307.1041      3012.1058      886.70518      1694.9532      10576.961     -1870.8374      295.72057      441.65473      141447.19      0.91703014    -7743.4684      61.451194      912.98914    
    102000   8937.9614     -7542.7962      1854.6572     -6144.4387      4244.8924      3100.8008      938.41849      1644.1473      10842.28      -1904.3187      303.13862     -376.96172      141073.62      0.91945851    -7806.1539      62.383649      931.11239    
    104000   9216.0206     -7539.5869      1881.2754     -6144.3745      4458.305       3132.3086      937.10242      1687.9221      10803.069     -1587.048       302.04231      135.70485      140904.4       0.92056274    -7770.0496      65.041872      949.06032    
    106000   9077.1602     -7539.2144      1870.2088     -6145.8038      4426.3655      3055.0925      965.84389      1700.4212      10744.247     -1667.0863      300.3977       107.56037      141064.67      0.91951685    -7788.5068      66.499047      967.1325     
    108000   8781.8492     -7629.8114      1847.5375     -6144.6004      4350.0952      2982.9946      968.48745      1674.0746      10733.072     -1951.2225      300.08527      446.15403      139675.72      0.92866058    -7897.2786      67.840529      985.35731    
    110000   8987.2627     -7627.0746      1857.3143     -6145.7951      4387.0352      3078.0954      959.6812       1672.4448      10805.561     -1818.2988      302.11201      428.38079      140048.82      0.92618656    -7886.2395      69.146362      1003.3632    
    112000   8950.0147     -7634.7893      1851.3459     -6143.9301      4337.3158      3036.1257      946.73025      1698.6864      10858.53      -1908.5153      303.59295      441.08828      140272.43      0.92471016    -7899.7519      70.164332      1021.5867    
    114000   9090.3297     -7588.792       1864.376      -6143.8252      4379.1538      3135.0364      956.65958      1698.5069      10789.214     -1698.8845      301.65495     -176.69267      140621.54      0.92241445    -7841.9094      71.647598      1039.8532    
    116000   9005.6099     -7500.9717      1841.4228     -6145.2282      4393.1048      2994.8645      936.57616      1681.6805      10804.161     -1798.5512      302.07285      271.79591      141181.69      0.91875465    -7775.1044      72.728676      1058.0136    
    118000   8914.3027     -7555.5417      1866.8204     -6143.9665      4435.7277      3031.301       997.28872      1700.7495      10581.924     -1667.6209      295.85933      508.00151      140311.03      0.92445571    -7801.3184      72.75235       1076.0078    
    120000   9155.8635     -7534.0908      1867.891      -6143.4296      4493.6806      3091.0356      950.63615      1695.6033      10734.537     -1578.6737      300.12624     -47.436753      141340.01      0.91772554    -7787.0506      73.945265      1094.2669    
    122000   8918.9922     -7549.3597      1858.2678     -6143.4719      4339.347       3056.5457      963.30538      1658.1154      10736.242     -1817.2503      300.17392     -323.06709      141333.16      0.91777002    -7804.0203      75.258817      1112.5057    
    124000   9070.8272     -7545.4359      1855.8356     -6146.7759      4502.6809      3081.2271      950.92849      1697.0042      10675.363     -1604.5355      298.47178     -58.737714      141031.24      0.91973479    -7810.2926      75.920914      1130.7369    
    126000   9141.751      -7555.3557      1842.5968     -6146.1454      4370.441       3139.1213      940.22062      1662.0411      10888.831     -1747.0803      304.44014     -44.091161      140564.71      0.92278733    -7830.9075      76.08865       1149.0915    
    128000   8945.2984     -7557.9174      1843.8209     -6144.1193      4338.3997      3033.7949      951.44006      1740.8837      10738.996     -1793.6975      300.2509       384.70441      140406.87      0.92382473    -7828.1496      77.935727      1167.4845    
    130000   9065.0953     -7547.7425      1852.3574     -6144.2088      4387.4644      3104.8068      968.0364       1649.9368      10794.445     -1729.3495      301.80119      103.54333      140795.38      0.92127552    -7805.746       78.487354      1185.8688    
    132000   8738.0434     -7566.9275      1866.4685     -6144.9758      4329.1439      2980.6947      940.65441      1672.7763      10660.209     -1922.1655      298.0481       74.408917      141271.12      0.91817306    -7816.0956      80.408429      1204.0398    
    134000   9017.5834     -7566.2831      1856.3964     -6145.9644      4426.3566      3109.7649      915.55808      1687.8116      10733.943     -1716.36        300.10964     -614.74252      141260.75      0.91824045    -7827.5076      81.036273      1222.2129    
    136000   9215.8706     -7596.4167      1852.109      -6144.3214      4450.0061      3123.9091      931.43307      1709.4141      10889.737     -1673.8667      304.46547     -214.70836      140624.47      0.9223952     -7864.6356      81.088881      1240.2814    
    138000   8969.5855     -7601.9188      1852.7481     -6144.9578      4365.6925      2977.5133      943.11078      1672.9998      10904.398     -1934.8121      304.87536     -267.30195      140124.34      0.92568743    -7864.1664      81.960583      1258.3811    
    140000   8919.1651     -7561.8898      1859.258      -6144.0338      4309.4642      3031.5527      961.08855      1746.2938      10717.431     -1798.2663      299.64798     -345.46382      141141.25      0.91901792    -7816.4344      84.535955      1276.5154    
    142000   9011.9307     -7530.5547      1851.0407     -6145.4625      4375.5887      3069.5742      980.37147      1704.1341      10707.239     -1695.308       299.363       -116.91215      140771.54      0.92143156    -7801.3264      85.806451      1294.471     
    144000   9048.2929     -7537.9996      1862.8613     -6145.1084      4354.729       3067.3746      912.38628      1696.0707      10837.979     -1789.6861      303.01836     -102.36818      140277.69      0.92467546    -7794.2899      87.026242      1312.4373    
    146000   8852.2472     -7583.3822      1829.7714     -6145.4987      4396.6567      2977.7019      951.75879      1673.6063      10751.633     -1899.3858      300.60422     -833.21185      140542.78      0.92293137    -7872.5202      87.494374      1330.6786    
    148000   9049.7268     -7547.7612      1855.5937     -6146.1756      4422.7694      3123.5826      980.71422      1659.354       10701.65      -1651.923       299.20674      223.10664      140920.9       0.92045495    -7805.8368      88.5328        1348.789     
    150000   9039.5893     -7616.5344      1828.2958     -6145.6393      4471.6594      3039.535       924.46091      1704.8808      10832.931     -1793.3417      302.87723     -202.83655      140461.94      0.9234625     -7907.2925      89.024659      1366.8885    
    152000   8858.7102     -7589.9861      1859.7479     -6144.1362      4280.6436      3035.9122      940.84467      1703.1391      10772.545     -1913.8347      301.1889      -836.19351      140329.77      0.92433228    -7851.0816      90.9233        1385.1607    
    154000   8806.7816     -7511.0333      1859.337      -6145.0899      4299.6742      2987.9669      1003.5444      1717.4131      10594.969     -1788.1877      296.22407     -697.66394      140589.8       0.92262267    -7770.1014      92.96436       1403.3835    
    156000   8889.4788     -7543.9684      1831.9467     -6143.2616      4428.7599      3035.775       926.88162      1692.3713      10660.974     -1771.4954      298.0695       232.50037      140326.07      0.92435668    -7827.5649      92.484023      1421.4933    
    158000   8842.7653     -7519.3962      1823.0668     -6145.9432      4284.346       3042.4306      943.42545      1670.4289      10744.407     -1901.6417      300.40219      69.331268      140643.97      0.92226733    -7810.3684      93.31238       1439.5355    
    160000   9003.711      -7529.6423      1870.3633     -6146.3432      4419.1441      3021.2665      943.73584      1668.3159      10756.871     -1753.1598      300.75067      177.82137      140661.27      0.92215392    -7771.652       94.102677      1457.6433    
    162000   9042.236      -7530.7597      1900.0065     -6145.796       4347.5414      3076.3789      954.38004      1671.431       10769.054     -1726.8179      301.09129      875.92624      140844.16      0.92095643    -7748.2767      96.388084      1475.7993    
    164000   8778.5408     -7633.2145      1832.1978     -6145.3583      4442.0189      3030.2057      930.18951      1699.5248      10622.977     -1844.4362      297.00714      148.77392      140142.5       0.92556748    -7914.6584      97.677636      1493.9634    
    166000   8939.919      -7638.0566      1814.5301     -6145.7202      4430.171       3008.9588      985.30691      1696.4796      10788.249     -1848.3304      301.62798      87.510193      140225.68      0.92501843    -7937.8972      97.461171      1512.1868    
    168000   8935.2791     -7540.1714      1854.5044     -6144.0629      4320.4134      3037.8987      961.40592      1667.6065      10777.684     -1842.4053      301.33259     -378.20849      140723.67      0.92174497    -7799.4506      99.941252      1530.5457    
    170000   8936.4551     -7627.3139      1869.5369     -6142.8104      4382.445       3056.4734      984.28814      1707.4958      10706.34      -1769.885       299.33788     -421.16639      139429.32      0.93030175    -7873.6033      100.64579      1549.0034    
    172000   9062.4995     -7495.898       1865.3648     -6144.1533      4315.6847      3115.0453      936.72306      1655.32        10814.413     -1751.9134      302.35948      276.48709      141424.36      0.91717818    -7747.0841      101.19324      1567.2347    
    174000   9172.9558     -7528.2179      1885.4231     -6145.376       4491.2996      3048.1215      953.2025       1635.4885      10833.015     -1660.0588      302.87957      14.725126      140920.28      0.92045901    -7761.1388      102.39373      1585.4733    
    176000   9135.5396     -7551.6752      1887.757      -6146.8133      4348.7411      3147.3563      908.02964      1707.3447      10834.799     -1699.2597      302.92946     -304.27186      141360.5       0.91759251    -7784.4064      103.53298      1603.4623    
    178000   9007.7327     -7486.0603      1851.0226     -6145.8665      4323.3214      3041.7561      924.20935      1628.3575      10870.992     -1863.2597      303.94138      534.97455      141613.91      0.91595057    -7753.5982      103.59296      1621.3727    
    180000   8962.0794     -7527.1528      1861.9445     -6146.0114      4337.8336      3012.2865      990.03959      1692.0305      10741.109     -1779.0297      300.30998     -94.163194      141093.63      0.91932811    -7786.9604      104.66428      1639.365     
    182000   8925.3776     -7451.8482      1866.8762     -6143.7052      4288.7505      3117.3323      948.03478      1642.2312      10657.706     -1732.3285      297.97813      491.16046      141212.19      0.91855625    -7705.8486      105.28795      1657.3225    
    184000   8999.5119     -7514.6286      1846.5293     -6145.4984      4313.1385      3008.7561      1002.1951      1670.7928      10818.227     -1818.7153      302.46613     -594.03567      141285.66      0.9180786     -7783.6968      105.61298      1675.3347    
    186000   9079.8645     -7534.3942      1869.2228     -6145.3243      4385.881       3033.0469      913.21069      1732.5084      10825.713     -1745.8487      302.67543      44.955882      141297.31      0.91800287    -7784.3596      107.6209       1693.3436    
    188000   8902.3478     -7578.377       1851.5194     -6144.2616      4427.2853      2952.9836      952.71058      1674.7714      10765.716     -1863.3683      300.99797      884.39291      139572.1       0.92935006    -7839.5213      108.18157      1711.4051    
    190000   8956.7973     -7530.1576      1888.6915     -6143.6399      4343.5885      3016.3392      939.58621      1672.6998      10769.69      -1812.8923      301.10906      63.284526      141426.44      0.91716471    -7758.5712      109.52026      1729.6777    
    192000   9006.1233     -7496.7909      1828.43       -6143.0291      4291.2017      3073.4823      960.97284      1738.7026      10753.154     -1747.0307      300.64675      112.03199      141263.11      0.91822514    -7781.5425      110.48548      1747.754     
    194000   9004.7453     -7503.1934      1837.2025     -6144.3576      4302.7258      3002.8476      970.39181      1700.2995      10838.829     -1834.0837      303.04213      117.5544       141078.09      0.91942937    -7779.968       111.31365      1765.8509    
    196000   9009.0554     -7550.4802      1846.8066     -6143.2842      4396.1121      3068.58        967.36828      1645.9742      10777.979     -1768.9232      301.34082     -462.19104      140108.79      0.92579017    -7818.4791      111.87241      1783.9498    
    198000   8844.8763     -7500.1169      1850.7954     -6144.7159      4385.8399      3026.7672      903.57471      1653.7621      10668.97      -1824.0936      298.29305      27.821386      141695.68      0.91542195    -7766.5062      114.44675      1802.0193    
    200000   8875.8314     -7593.7087      1839.4425     -6145.3008      4388.8288      2997.1172      919.6819       1683.4219      10786.349     -1910.5172      301.57483      1019.2876      140065.12      0.92607876    -7870.2684      115.21041      1820.0269    
    202000   8883.5599     -7574.6202      1829.118      -6144.8814      4399.6472      3036.7227      973.35644      1666.7426      10697.475     -1813.9147      299.09001      577.34903      140434.65      0.92364194    -7864.4761      116.70656      1838.0343    
    204000   9107.0765     -7535.5074      1842.0265     -6144.2898      4392.295       3117.5564      939.205        1680.9475      10814.843     -1707.7669      302.37152     -16.618446      141014.11      0.91984649    -7810.5068      117.26359      1855.9947    
    206000   9243.1874     -7549.8752      1850.0383     -6145.2228      4522.0984      3071.6143      952.45172      1714.3936      10827.689     -1584.5017      302.73067     -245.41668      140686.65      0.92198753    -7818.5375      119.3008       1873.9521    
    208000   9148.3638     -7565.7992      1848.9678     -6143.6036      4487.8935      3070.5541      1007.6053      1694.4179      10748.328     -1599.9644      300.51182     -250.22837      140594.03      0.92259494    -7831.3599      118.1977       1892.1683    
    210000   8948.8991     -7500.9717      1859.0012     -6143.6308      4359.9216      3010.514       939.32328      1717.9755      10706.766     -1757.867       299.34979     -361.9647       141005.95      0.91989975    -7757.7222      118.90617      1910.2534    
    212000   9186.4928     -7523.5751      1831.4285     -6143.5745      4392.6367      3083.9223      960.49991      1709.7315      10875.424     -1688.9308      304.06528      614.76846      141333.47      0.91776802    -7804.4689      119.71124      1928.2992    
    214000   8892.3001     -7601.674       1848.1427     -6143.8436      4347.6549      3054.7874      963.55584      1701.5569      10722.12      -1829.8198      299.77907      233.93955      139489.07      0.92990323    -7867.1327      119.57034      1946.3168    
    216000   8938.1604     -7554.7488      1872.844      -6145.5773      4400.1241      3007.7645      952.86365      1708.5672      10696.323     -1758.1627      299.05782     -157.80685      141040.97      0.91967131    -7800.9019      121.6694       1964.44      
    218000   9011.5394     -7518.951       1858.4709     -6145.7119      4334.5429      3059.8001      953.13432      1692.7298      10777.524     -1765.9849      301.32812     -230.97627      140982         0.92005599    -7778.8132      122.63215      1982.2763    
    220000   8999.8083     -7530.1805      1868.5421     -6144.1874      4357.7604      3041.0508      934.84611      1689.5401      10782.437     -1782.6284      301.46546      430.7754       140762.59      0.92149011    -7777.738       123.23441      2000.2063    
    222000   8960.2115     -7539.296       1866.4288     -6144.6442      4415.1615      3024.9631      994.99817      1658.9322      10683.668     -1723.4564      298.70399      250.6314       140878.55      0.92073164    -7786.7688      124.2167       2018.1984    
    224000   8946.176      -7537.5577      1885.4782     -6145.4153      4238.0635      3077.7202      942.46743      1627.4694      10857.95      -1911.7743      303.57674     -539.99138      141342.14      0.91771168    -7767.5727      125.36956      2036.2819    
    226000   9179.5875     -7500.6708      1871.3853     -6143.5025      4462.635       3115.1341      958.62089      1674.4326      10741.553     -1561.9655      300.3224       108.26334      140765.91      0.92146842    -7742.8395      126.55178      2054.1779    
    228000   8961.8826     -7588.2289      1863.2768     -6144.2473      4379.3173      3029.0863      999.84784      1692.1964      10730.634     -1768.7516      300.01712     -664.3207       140599.27      0.92256052    -7844.8604      127.50972      2072.2262    
    230000   8936.6093     -7577.4689      1856.011      -6144.7735      4345.9421      3029.4083      1016.5092      1660.6729      10750.308     -1813.6989      300.56718      338.01546      140065.6       0.92607563    -7836.9423      129.27298      2090.1394    
    232000   8828.7407     -7556.1936      1846.9543     -6145.1693      4298.1919      3099.0464      928.15038      1662.7639      10694.997     -1866.2561      299.02073      1193.4689      141176.29      0.9187898     -7826.232       130.3256       2108.1535    
    234000   8796.1035     -7565.4831      1849.0805     -6145.0222      4288.9721      3028.8336      938.30158      1682.3071      10719.114     -1923.0104      299.69502      288.30764      139834.1       0.92760875    -7834.411       131.43137      2126.2412    
    236000   8890.9002     -7574.8345      1818.1819     -6146.7238      4369.9372      3086.4576      963.26518      1668.1719      10706.445     -1815.5447      299.34081     -67.375004      140631.5       0.92234909    -7872.0236      133.19265      2144.2385    
    238000   9048.293      -7505.4726      1877.3266     -6144.0967      4439.7722      3065.3797      924.05297      1644.8638      10746.467     -1698.174       300.45979      70.138838      141354.12      0.91763392    -7747.9559      134.44559      2162.5261    
    240000   9132.0092     -7541.841       1860.9876     -6145.6328      4470.3868      3136.3517      934.65522      1677.8647      10739.237     -1607.2276      300.25764     -448.44239      140643.33      0.92227154    -7802.0317      135.974        2180.6225    
    242000   8922.8963     -7555.0975      1859.3569     -6145.3267      4324.4396      3099.1537      918.90429      1642.2279      10779.238     -1856.3417      301.37603     -532.94061      140412.76      0.92378598    -7813.7636      136.63643      2198.7194    
    244000   9081.5766     -7525.4485      1864.5077     -6144.5468      4388.8289      3092.4306      924.85573      1675.2691      10805.68      -1724.1033      302.11532     -382.64497      140767.07      0.92146083    -7781.4814      137.69373      2216.6977    
    246000   8893.0547     -7534.1747      1824.1824     -6145.2746      4420.2061      3074.2279      941.33991      1688.5346      10624.013     -1730.9584      297.03611      245.10457      140215.69      0.9250843     -7826.91        138.09833      2234.7588    
    248000   9127.7009     -7572.0483      1862.8887     -6144.6634      4409.2572      3058.0171      971.1867       1735.4948      10807.568     -1679.8672      302.16811      637.52112      140958.11      0.92021195    -7825.0913      140.61988      2252.7166    
    250000   8987.2671     -7534.745       1841.4077     -6144.0596      4425.2471      3036.6872      892.88607      1678.2396      10791.604     -1804.3369      301.72177      255.30907      140665.31      0.92212742    -7809.8614      143.26522      2270.6499    
    252000   8956.4605     -7566.7448      1846.0805     -6145.0492      4413.2031      2986.9088      986.04446      1694.54        10741.478     -1785.0171      300.32029      94.025925      140652.19      0.9222134     -7836.8611      144.56891      2288.6286    
    254000   9029.1191     -7476.328       1861.3658     -6144.6593      4416.3815      3013.4129      930.71915      1713.0377      10715.189     -1686.0701      299.58529     -15.560413      141547.62      0.91637953    -7728.5674      145.22974      2306.627     
    256000   8844.1907     -7583.997       1821.6011     -6145.9724      4436.0868      3062.031       919.77809      1650.5221      10684.141     -1839.9503      298.71722     -165.34758      140082.63      0.92596304    -7881.141       146.86301      2324.5042    
    258000   8847.6136     -7561.5559      1811.183      -6143.622       4453.886       3038.7651      925.52384      1657.5607      10665.873     -1818.2592      298.20646     -423.61799      140249.85      0.92485903    -7868.9638      148.269        2342.4728    
    260000   8805.1888     -7629.8458      1828.4749     -6145.6688      4307.0105      3052.299       946.74939      1655.4036      10790.766     -1985.5772      301.69834      165.81525      139744.52      0.92820341    -7920.2862      148.58468      2360.4265    
    262000   8832.131      -7525.7032      1833.2967     -6143.5566      4369.5321      3009.1872      941.46892      1696.8672      10651.039     -1818.9078      297.79171     -164.02449      140033.8       0.92628592    -7807.7727      150.47719      2378.3766    
    264000   8732.9298     -7643.8331      1816.2158     -6144.9218      4398.8474      3059.171       941.95243      1690.1271      10615.371     -1882.4413      296.79448      416.62927      139318.92      0.93103895    -7947.4494      151.89114      2396.3205    
    266000   8955.2717     -7577.7732      1839.4638     -6144.6967      4417.2246      3030.7084      973.12008      1744.3305      10672.894     -1717.6225      298.40277     -620.45384      139684.89      0.92859964    -7852.7011      153.65467      2414.0551    
    268000   8813.7985     -7572.9638      1855.9268     -6143.2546      4371.7141      3063.1704      908.67122      1646.4262      10684.108     -1870.3097      298.7163       520.19411      140451.98      0.92352804    -7832.1505      154.86364      2431.5568    
    270000   8959.4126     -7583.6179      1858.7764     -6145.0319      4312.0546      3091.2164      862.98408      1683.4821      10879.549     -1920.1362      304.18061      887.87457      140015.29      0.92640839    -7845.72        156.27964      2449.3093    
    272000   8728.907      -7508.0697      1868.1009     -6142.8474      4233.7818      2911.2803      936.34818      1677.5785      10752.734     -2023.8274      300.63502      359.50635      140912.53      0.92050957    -7758.7858      157.71289      2467.2002    
    274000   9011.4697     -7614.0755      1836.5866     -6145.1179      4382.6493      3070.0675      981.26965      1635.6384      10864.451     -1852.9818      303.75851      388.11157      139956.48      0.92679763    -7894.1069      158.31669      2484.9477    
    276000   8817.0911     -7619.8327      1824.4305     -6145.5814      4454.3466      2975.4053      896.69811      1720.7215      10710.903     -1893.8121      299.46546      332.9459       139622.07      0.92901745    -7908.1067      158.74079      2502.8499    
    278000   8974.3013     -7577.7748      1847.7612     -6145.5968      4324.8593      3058.2218      956.9644       1699.7786      10810.088     -1835.7863      302.23855      118.61387      140631.01      0.92235231    -7848.5416      160.78473      2520.7813    
    280000   9121.7242     -7626.9355      1843.5514     -6144.6081      4462.8646      3054.54        932.69892      1686.6649      10912.948     -1791.2238      305.11442      368.9302       139506.09      0.92978981    -7901.3273      161.13475      2538.8867    
    282000   8829.131      -7653.4515      1853.8381     -6144.4746      4334.2546      3033.2267      958.58964      1702.9654      10744.183     -1915.0517      300.39592      274.43487      139852.79      0.92748481    -7915.0086      161.11805      2556.7519    
    284000   8985.7871     -7554.7346      1859.0669     -6143.8368      4305.4846      3137.1184      928.12255      1687.0584      10767.508     -1781.7205      301.04806      69.617256      140439.57      0.92360964    -7811.9768      161.55846      2574.7046    
    286000   9023.8309     -7510.4704      1856.6101     -6144.4875      4351.4196      3074.1387      955.80242      1678.8665      10761.951     -1738.1205      300.89271      62.418122      140859.78      0.92085429    -7769.9669      164.18608      2592.6       
    288000   8864.5811     -7497.8279      1871.2973     -6145.5567      4339.4857      2998.9419      948.73053      1647.8918      10701.618     -1837.0373      299.20587     -790.83548      141151.22      0.91895297    -7750.6128      166.91949      2610.5353    
    290000   8908.6523     -7571.8923      1858.1024     -6145.5336      4349.1657      3018.7856      912.56033      1654.5592      10832.905     -1924.2528      302.8765      -357.42438      141199.62      0.918638      -7834.5648      167.72114      2628.7       
    292000   8915.1192     -7560.1502      1856.1786     -6145.3206      4414.9671      3103.6568      980.12876      1671.4763      10594.182     -1679.0632      296.20207      247.22809      140577.54      0.92270315    -7815.7107      168.69152      2646.8543    
    294000   8902.2619     -7678.5335      1835.2855     -6143.31        4308.4942      3054.4882      953.81539      1688.1991      10883.823     -1981.5611      304.30011     -24.954614      139577.53      0.92931391    -7952.5632      169.73242      2665.1994    
    296000   9012.3286     -7594.7069      1852.6959     -6144.3578      4341.7817      3055.9436      964.20061      1705.7981      10830.973     -1818.6448      302.82249     -163.13531      140361.48      0.92412343    -7862.6519      171.51679      2683.3549    
    298000   8809.6542     -7636.446       1849.1638     -6144.7504      4321.004       3007.5351      986.12478      1696.1393      10730.884     -1921.2294      300.02409      348.26458      139719.35      0.9283706     -7902.0968      172.21001      2701.5397    
    300000   8914.761      -7443.7556      1872.0283     -6145.1267      4393.5814      3056.2466      897.08712      1711.8194      10572.881     -1658.1195      295.60649     -408.88023      142114.98      0.91272105    -7688.1174      173.86086      2719.7009    
    302000   9108.5386     -7492.0399      1849.3218     -6144.5438      4293.2397      3094.6726      961.30783      1690.6856      10855.895     -1747.3561      303.51927     -517.97592      141228.41      0.91845072    -7761.1643      173.99518      2737.8504    
    304000   8949.9218     -7509.8928      1861.9492     -6145.0511      4379.8238      3031.0209      939.10261      1683.6992      10709.27      -1759.3482      299.4198      -244.80585      140829.62      0.92105151    -7764.8957      173.80702      2756.0129    
    306000   9109.6082     -7528.8768      1851.7091     -6145.0712      4383.1712      3048.549       973.15668      1643.8192      10883.151     -1773.5429      304.28133      478.41226      141209.65      0.91857278    -7794.806       174.16374      2774.0216    
    308000   8876.892      -7568.7998      1871.9844     -6144.8953      4279.4071      3074.0229      988.56117      1760.5429      10616.069     -1739.1766      296.81399     -432.41346      140433.89      0.92364698    -7816.0093      174.89776      2792.2286    
    310000   8882.507      -7524.0282      1857.6854     -6144.9258      4308.7351      3019.2372      957.17397      1617.1551      10791.474     -1908.9671      301.71814     -179.33068      140906.52      0.92054885    -7782.9053      176.42849      2810.4587    
    312000   9045.8304     -7569.8291      1850.4684     -6144.0206      4457.0171      3066.2823      928.54958      1700.5348      10756.828     -1710.9975      300.74947      1176.3407      140448.26      0.92355247    -7833.2162      176.91531      2828.4466    
    314000   9136.5594     -7554.7067      1879.1268     -6143.3268      4387.5226      3082.0973      943.45645      1725.9565      10816.433     -1679.8737      302.41597      320.30782      140744.74      0.92160697    -7794.112       178.49864      2846.3709    
    316000   8921.2049     -7553.532       1861.7416     -6142.0587      4366.39        2974.2761      974.44508      1665.4937      10774.449     -1853.2443      301.24214     -137.07815      141421.21      0.91719864    -7806.2282      181.33262      2864.3419    
    318000   9010.4595     -7539.7192      1842.7075     -6143.9104      4335.1901      3018.3278      954.67225      1679.0202      10864.171     -1853.7118      303.75067      100.21795      140244.47      0.92489449    -7815.7872      180.03675      2882.4182    
    320000   8918.8823     -7540.2532      1866.6481     -6143.3604      4360.3442      3016.7857      960.39202      1665.8657      10732.46      -1813.5779      300.06817     -654.17068      140581.71      0.92267575    -7789.7802      182.79749      2900.5845    
    322000   9170.3341     -7540.5636      1842.511      -6144.0935      4394.0445      3030.5775      971.11944      1653.6699      10963.069     -1792.7348      306.51574     -282.41911      140833.12      0.92102867    -7816.4324      182.95898      2918.7082    
    324000   9057.9002     -7505.6909      1837.5801     -6144.3707      4388.4622      3071.3618      930.86251      1682.7824      10796.913     -1739.0126      301.8702      -9.7377529      140902.88      0.92057263    -7784.3875      184.07236      2936.782     
    326000   8853.3896     -7541.3192      1822.3327     -6145.0315      4425.2656      2972.1874      958.169        1683.3099      10678.476     -1825.086       298.55882     -170.03262      140332.26      0.92431587    -7837.9419      184.48804      2955.0565    
    328000   9144.9973     -7557.0358      1870.4812     -6144.5273      4345.6059      3111.3699      955.46038      1667.3208      10896.322     -1751.3248      304.64958     -476.90713      140944.09      0.92030349    -7803.0817      188.20817      2973.4834    
    330000   8772.1667     -7590.7945      1853.3748     -6142.9671      4308.7144      3054.6924      946.07313      1667.3645      10675.709     -1903.5424      298.48147      302.25206      140290.84      0.92458878    -7855.0434      189.19475      2991.8217    
    332000   8908.9991     -7657.7617      1845.4362     -6144.2134      4346.4549      3088.9626      950.97063      1743.4638      10735.686     -1826.687       300.15836      94.090087      139086.67      0.93259359    -7928.1896      189.47926      3010.0636    
    334000   8783.6119     -7630.8599      1844.4349     -6144.1408      4419.1607      3024.7138      931.4607       1626.376       10712.467     -1928.8546      299.50917     -689.99865      140013.76      0.92641851    -7903.5929      190.08835      3028.3651    
    336000   8935.8424     -7590.7728      1840.053      -6144.1601      4421.2147      2993.5675      967.94093      1654.2579      10793.741     -1857.8988      301.78152     -151.45392      139629.41      0.92896859    -7865.4685      191.21731      3046.4569    
    338000   8781.8666     -7584.987       1860.8988     -6144.1942      4278.1146      3002.294       936.22652      1631.5904      10801.924     -2020.057       302.01029      4.0446439      140710.66      0.92183022    -7843.2788      194.58613      3064.5093    
    340000   8951.4467     -7517.9514      1880.2369     -6144.6965      4253.0041      3053.7896      964.05965      1647.9761      10815.028     -1863.5814      302.37668      51.709581      141041.18      0.91966995    -7755.4858      194.87933      3082.619     
    342000   9218.8629     -7445.1265      1861.3858     -6145.0476      4346.5655      3076.6894      950.00582      1743.5253      10830.865     -1612.0022      302.81947     -81.462627      142086.2       0.91290595    -7698.5318      198.46221      3100.7287    
    344000   9014.0975     -7557.6859      1853.2821     -6143.3668      4293.8317      3154.5341      946.15613      1691.0451      10776.301     -1762.2036      301.29391     -447.25849      140899.84      0.92059252    -7824.4016      197.88301      3118.811     
    346000   8872.2571     -7612.5205      1853.1115     -6145.2287      4344.0166      3022.9737      979.99232      1710.4343      10719.478     -1847.2207      299.7052       117.97361      139979.68      0.92664403    -7879.8911      197.88375      3136.9411    
    348000   9078.9415     -7535.03        1847.4335     -6143.317       4308.5655      3114.7683      984.21615      1702.9131      10799.392     -1720.4505      301.93951     -221.3191       141228.79      0.91844825    -7803.834       200.81583      3154.8957    
    350000   8883.1015     -7534.01        1850.8664     -6145.1093      4350.3009      3058.8277      921.85658      1709.7706      10670.598     -1787.497       298.33858     -388.8672       140497.63      0.92322791    -7795.3245      201.57671      3173.2499    
    352000   8823.5936     -7569.2714      1833.9631     -6145.5086      4342.6885      2941.2696      961.29188      1646.4635      10812.697     -1989.1034      302.31151      429.03066      140239.57      0.92492679    -7850.5954      199.96371      3191.5474    
    354000   9280.1003     -7529.9094      1869.633      -6143.732       4428.6025      3128.9732      953.13097      1700.2048      10873.197     -1593.0969      304.00303     -144.51306      140911.6       0.9205157     -7780.4582      202.7128       3209.7626    
    356000   8896.2058     -7497.1825      1866.7169     -6144.5101      4344.6431      3022.1423      967.51783      1675.9922      10660.886     -1764.6803      298.06704      568.60498      140921.6       0.92045034    -7747.5528      204.17637      3228.0262    
    358000   9055.1772     -7541.3631      1864.5706     -6146.0833      4467.5012      3048.3494      937.47596      1655.6544      10769.072     -1713.8948      301.0918      -83.979927      140829.34      0.92105338    -7794.1445      205.62398      3246.1317    
    360000   8955.4848     -7579.2338      1854.2646     -6145.5636      4338.0711      3053.1373      983.5841       1692.6971      10758.528     -1803.0432      300.797       -521.17912      140483.45      0.92332111    -7842.775       208.10824      3264.2502    
    362000   8942.7417     -7536.3128      1859.1054     -6145.8217      4453.736       2998.3678      935.75621      1712.9695      10664.941     -1722.1997      298.18042     -430.19936      140487.47      0.92329471    -7794.4955      209.11684      3282.4353    
    364000   9024.0474     -7501.4147      1863.9916     -6143.9         4430.362       3063.0874      937.88101      1715.3963      10658.644     -1634.5963      298.00434     -2.4525127      141382.49      0.91744977    -7755.111       211.858        3300.5358    
    366000   9023.6787     -7475.4869      1877.7409     -6145.9213      4386.3113      3043.5865      947.04466      1636.5615      10753.842     -1730.1634      300.66599     -783.42567      141714.78      0.91529855    -7720.5503      212.56305      3318.5904    
    368000   9183.3842     -7445.0943      1867.5782     -6145.185       4357.4594      3065.1407      995.35366      1669.1183      10819.013     -1635.6291      302.4881       394.33372      141848.81      0.91443376    -7690.1533      214.4973       3336.4703    
    370000   9148.4114     -7563.6653      1834.3153     -6144.9794      4407.2347      3123.1166      930.37446      1679.9279      10882.087     -1733.6757      304.25158      190.21417      140574.31      0.92272437    -7844.7284      214.20812      3354.3589    
    372000   9127.7004     -7615.9473      1874.0805     -6143.6881      4413.7725      3088.8758      923.22586      1705.3866      10881.995     -1754.2942      304.24899      676.22299      139709.57      0.92843562    -7855.5537      214.0953       3372.4942    
    374000   9142.0217     -7595.1862      1843.454      -6146.1094      4400.4059      3071.5842      966.20705      1695.1504      10906.516     -1764.494       304.93458      79.799242      139558.77      0.92943881    -7872.7732      215.2331       3390.6638    
    376000   8741.9549     -7592.7463      1819.5004     -6145.292       4338.81        3054.8623      942.72615      1683.9441      10640.15      -1898.1952      297.48728     -1283.5938      140828.16      0.92106107    -7893.5679      216.89195      3408.8632    
    378000   8980.1562     -7593.631       1860.1949     -6142.7733      4403.1835      3011.445       922.91338      1685.6818      10833.142     -1852.9856      302.88312      614.95166      139978.48      0.926652      -7847.0513      218.01096      3427.2665    
    380000   8959.8899     -7631.4943      1820.2073     -6145.253       4390.1381      3139.6908      924.08485      1663.0133      10799.503     -1839.6131      301.94262      209.57376      139666.01      0.92872516    -7932.9494      219.49909      3445.5935    
    382000   9071.0866     -7555.346       1856.3338     -6144.9195      4395.3685      3047.2196      969.71428      1744.4674      10758.248     -1687.1618      300.78918     -232.64111      140483.36      0.92332169    -7814.6903      221.44288      3463.8293    
    384000   8977.4052     -7539.9908      1861.5114     -6143.1637      4463.5593      3019.4478      942.16994      1721.4751      10652.396     -1674.9909      297.82966      525.96095      140287.88      0.92460832    -7794.465       222.02252      3482.149     
    386000   8866.5207     -7552.3858      1861.9762     -6144.9718      4436.2012      3032.5651      963.29425      1692.8001      10577.041     -1710.5207      295.72283     -244.85741      140226.16      0.92501524    -7809.307       222.78028      3500.471     
    388000   8896.7799     -7535.2047      1863.3237     -6145.0924      4337.5237      3018.7298      908.04717      1730.3572      10719.095     -1822.3155      299.69451     -977.65341      141005.19      0.91990471    -7791.1081      224.05324      3518.7039    
    390000   8926.5179     -7573.2538      1814.8717     -6144.4192      4355.01        3053.2628      960.16194      1696.9188      10763.966     -1837.4477      300.94903     -230.13979      140208.54      0.92513151    -7876.3214      224.02944      3537.0923    
    392000   9000.5774     -7569.3345      1867.7834     -6143.1779      4328.8922      3030.5346      960.74871      1690.9078      10834.223     -1833.6457      302.91335     -60.064605      140889.92      0.92065736    -7817.6722      226.68542      3555.1664    
    394000   9025.03       -7456.8865      1860.624      -6143.2622      4350.1922      3061.7534      940.22467      1718.5841      10693.8       -1668.7704      298.98729      512.94946      142247.3       0.91187208    -7709.6217      229.08462      3573.0943    
    396000   8755.4703     -7526.0153      1860.1594     -6144.5247      4407.7166      3001.7912      941.64619      1629.4209      10585.276     -1829.8057      295.95306      229.69743      140470.49      0.92340629    -7785.5374      228.32113      3591.0416    
    398000   9110.8275     -7543.0303      1881.4944     -6144.9703      4404.9287      3036.678       899.43102      1709.6995      10866.596     -1755.7689      303.81848      43.516521      140613.17      0.92246935    -7778.7882      230.5392       3609.1225    
    400000   8866.5419     -7548.3774      1880.6444     -6145.0249      4395.7603      2955.5491      967.90158      1673.5099      10686.579     -1820.0371      298.78538     -388.85531      140842.56      0.92096692    -7788.0837      232.00001      3626.7529    
    402000   8786.5219     -7566.9166      1842.7532     -6145.1659      4345.6706      3057.6629      947.8995       1678.707       10625.911     -1839.3892      297.08917     -1033.7743      140306.37      0.92448643    -7841.9454      231.62868      3644.6568    
    404000   9037.3396     -7517.2186      1872.5557     -6145.2343      4357.7338      3106.2088      946.84688      1657.4174      10759.03      -1721.6903      300.81103      114.19238      140703.14      0.92187948    -7763.2257      232.07904      3662.4642    
    406000   9265.0756     -7536.0008      1850.8905     -6143.0851      4442.2343      3030.5583      916.05761      1767.2367      10937.184     -1672.1085      305.79203     -211.52247      140605.47      0.92251988    -7803.198       234.27997      3680.2691    
    408000   8990.8451     -7582.8181      1865.7433     -6143.9792      4414.4086      3028.7104      922.32141      1727.093       10759.366     -1768.5206      300.82042     -802.088        141078.28      0.91942815    -7835.8961      236.29981      3698.1922    
    410000   8949.0592     -7497.9653      1854.9354     -6144.6325      4385.6932      3004.8449      958.29978      1712.6141      10675.27      -1726.2104      298.46918      187.83794      141083.03      0.91939715    -7761.2667      238.48609      3716.1762    
    412000   8930.848      -7492.4654      1856.6052     -6143.5795      4295.1559      3067.6003      942.89937      1662.2818      10742.35      -1811.5024      300.34469     -431.04868      141217.84      0.91851948    -7750.6259      239.62027      3734.1512    
    414000   8980.4634     -7595.0992      1848.8238     -6143.7648      4433.1261      3064.0626      946.41014      1678.2752      10748.63      -1768.1661      300.52025      234.5306       139767.21      0.92805273    -7858.551       239.3844       3752.0661    
    416000   9017.3849     -7490.5191      1879.1035     -6145.7744      4296.3673      3115.5001      939.03399      1624.6146      10799.059     -1781.674       301.9302       50.45343       141425.84      0.91716855    -7729.6129      242.12135      3770.1198    
    418000   9100.231      -7541.9669      1848.5506     -6144.2166      4370.0596      3111.8062      973.04682      1691.3952      10791.556     -1691.3251      301.72043      226.02982      140622.24      0.92240983    -7807.4239      243.63585      3788.1275    
    420000   9107.3676     -7572.5756      1877.2463     -6142.54        4468.8398      3038.5767      915.90749      1719.8821      10802.031     -1694.6632      302.01329      303.34229      140124.05      0.9256893     -7810.7197      243.96562      3806.3237    
    422000   9018.5591     -7564.2608      1819.6922     -6145.3578      4427.7166      3081.7252      959.4318       1653.1397      10786.472     -1767.9132      301.57829      644.73852      141053.64      0.91958874    -7856.8075      244.72864      3824.348     
    424000   9112.5392     -7519.3181      1869.0143     -6144.3821      4396.7801      3003.7995      978.56941      1702.5769      10825.499     -1712.96        302.66944     -860.07632      141588.14      0.91611726    -7763.8896      245.14732      3842.4926    
    426000   8958.3349     -7532.1358      1859.0996     -6145.1524      4434.6181      3040.874       970.39228      1664.9281      10665.711     -1707.3761      298.20194      131.14089      141430.59      0.91713779    -7785.7412      248.33359      3860.7459    
    428000   8939.4536     -7571.6569      1852.1498     -6144.83        4422.2438      2991.7944      936.65908      1650.0713      10803.022     -1863.5684      302.04101     -100.69451      140276.75      0.92468165    -7838.1022      246.32416      3878.8986    
    430000   8844.6542     -7603.9103      1858.3448     -6145.185       4405.5566      3018.7863      934.8619       1691.4644      10684.735     -1840.0813      298.73384      457.07438      139882.53      0.92728759    -7857.6852      247.37007      3897.1792    
    432000   8829.3256     -7530.911       1841.9936     -6144.7776      4433.4374      2956.4726      917.25482      1663.0075      10692.848     -1863.5226      298.96066      67.15642       140395.06      0.9239024     -7810.6223      249.555        3915.4849    
    434000   9103.0541     -7504.4753      1864.9005     -6146.1773      4387.7184      3055.0638      941.75499      1700.544       10803.725     -1700.6709      302.06066     -13.01551       141407.03      0.9172906     -7754.3168      249.52316      3933.7108    
    436000   9052.3558     -7511.1275      1851.0701     -6144.7686      4391.6864      3086.9751      936.92182      1665.5912      10776.007     -1723.6515      301.2857       110.48818      140937.8       0.92034453    -7777.1254      250.74865      3951.8703    
    438000   9146.8721     -7516.3259      1859.6756     -6144.7294      4465.1022      2996.5251      973.67084      1722.0225      10790.931     -1644.059       301.70296     -916.46274      141246.13      0.91833554    -7770.3362      252.13269      3970.1545    
    440000   8911.7708     -7566.5278      1850.4176     -6145.0051      4318.317       3044.9065      991.68873      1665.9161      10752.058     -1840.287       300.6161       618.45122      140249.22      0.92486315    -7831.4126      252.5502       3988.3051    
    442000   8878.1646     -7551.425       1871.9061     -6143.7284      4393.0876      3024.7242      908.71037      1689.5223      10685.368     -1807.2029      298.75151      342.77784      141002.23      0.91992399    -7799.0709      254.88154      4006.5832    
    444000   8946.8834     -7572.2463      1883.2107     -6146.0455      4407.2754      3038.1144      931.63772      1698.6875      10706.25      -1759.3661      299.33535      365.71684      141196.79      0.91865643    -7806.8832      254.83129      4024.7303    
    446000   9292.0458     -7533.5401      1838.9096     -6145.7179      4441.5913      3186.0749      929.54633      1713.1437      10862.038     -1569.9922      303.69103     -197.81187      140668.5       0.92210651    -7815.0562      255.22297      4042.9       
    448000   9006.9852     -7543.1797      1880.0479     -6144.7957      4337.7266      3053.5385      946.02759      1708.4621      10769.158     -1762.1727      301.0942      -421.96474      140798.42      0.92125564    -7786.3177      257.19788      4061.103     
    450000   9078.9817     -7611.8965      1869.9921     -6145.5393      4430.6322      3123.6994      965.22172      1669.2432      10777.629     -1698.6473      301.33104      172.06661      140343.64      0.92424092    -7864.4098      258.65104      4079.2241    
    452000   9011.4731     -7554.4572      1863.2797     -6145.2238      4413.4447      3065.2952      956.88602      1614.8568      10797.392     -1785.9185      301.88358      436.25797      140701.44      0.92189059    -7809.0592      261.08118      4097.317     
    454000   9231.8104     -7541.5116      1877.3585     -6143.7051      4423.7402      3044.7391      988.83761      1692.9154      10889.436     -1657.6259      304.45706      68.829888      141238.31      0.91838634    -7779.9073      262.45378      4115.3787    
    456000   9120.1911     -7568.6226      1880.2707     -6142.9214      4371.5835      3043.0608      960.86305      1738.8314      10837.126     -1716.9345      302.99451     -53.270256      141240.87      0.91836972    -7800.893       263.8467       4133.3713    
    458000   8848.8884     -7495.3122      1866.2232     -6145.0329      4350.5082      3023.1474      932.5796       1707.8287      10608.946     -1760.0579      296.61485      958.18114      141598.33      0.91605131    -7744.3319      264.94458      4151.5765    
    460000   9017.702      -7517.0701      1852.7695     -6144.0725      4252.9267      3113.5407      923.44019      1694.6444      10841.523     -1823.8211      303.11745      380.79647      140716.61      0.9217912     -7781.2965      263.50922      4170.0425    
    462000   8997.1849     -7534.4055      1866.9859     -6144.2038      4412.7098      3036.2821      944.51959      1636.0144      10779.282     -1782.0975      301.37727     -44.754047      140850.98      0.92091188    -7784.1829      265.59757      4188.3949    
    464000   8988.9527     -7581.4607      1852.9795     -6143.5115      4360.828       3032.1454      965.04704      1734.3176      10768.607     -1779.6546      301.0788       207.73821      140451.8       0.92352918    -7842.3418      265.05824      4206.7281    
    466000   9178.4362     -7485.9576      1845.0741     -6143.646       4446.0551      3089.2498      971.27507      1670.7849      10785.601     -1607.1646      301.55393     -445.71588      141504.97      0.91665572    -7758.3581      266.14617      4225.0341    
    468000   9078.0773     -7513.7422      1846.6459     -6145.3075      4339.816       3114.7252      919.4935       1665.1278      10851.319     -1773.2414      303.39133      597.10513      141167.56      0.91884664    -7783.0725      268.26557      4243.5281    
    470000   9016.278      -7562.2353      1869.4806     -6145.632       4345.5818      3000.3609      963.67068      1734.4646      10810.587     -1794.3087      302.2525       726.55906      140651.57      0.92221747    -7807.734       269.33347      4261.7685    
    472000   8972.4147     -7551.8983      1879.4172     -6144.7676      4410.2664      2985.0519      928.78561      1692.6587      10772.901     -1800.4861      301.19885     -501.8806       141433.98      0.91711581    -7784.799       270.70992      4279.7879    
    474000   8967.2276     -7544.9224      1855.2526     -6145.6004      4462.7653      3065.7193      937.38002      1704.9354      10631.698     -1664.4702      297.25096      451.33369      140530.1       0.9230146     -7807.0518      271.76893      4297.8111    
    476000   9095.5104     -7549.5361      1895.8242     -6144.8856      4292.5207      3114.3855      931.91153      1715.568       10839.722     -1744.2117      303.0671       55.043685      141017.2       0.91982634    -7775.9957      272.44322      4315.6449    
    478000   8980.555      -7492.4564      1874.0113     -6144.9665      4325.107       3058.563       927.84853      1678.4104      10754.038     -1773.4827      300.67145      176.93898      141443.4       0.9170547     -7734.6619      277.00646      4333.7472    
    480000   8898.2438     -7602.3184      1820.8621     -6145.8525      4336.6114      2972.2615      995.02791      1656.945       10864.707     -1966.463       303.76564      1354.3348      139820.53      0.92769882    -7898.3418      275.90691      4351.9523    
    482000   9099.9242     -7540.4434      1877.6935     -6143.3913      4447.169       3036.3979      961.43979      1643.3503      10817.708     -1717.7843      302.45162      574.03768      141403.52      0.91731332    -7778.1027      280.25222      4370.0431    
    484000   9161.6662     -7465.7578      1865.5506     -6144.3078      4411.6329      3066.1877      904.72847      1703.9195      10819.713     -1658.0465      302.50766     -323.78455      142071.22      0.91300221    -7716.8989      281.3076       4388.0763    
    486000   9154.1218     -7459.3579      1859.3159     -6145.7232      4430.902       3033.1402      942.44461      1695.3101      10798.09      -1643.9683      301.90311     -304.52877      142525.58      0.91009163    -7716.9229      283.5834       4406.2192    
    488000   9022.4176     -7555.6756      1851.8751     -6145.0515      4451.4105      3052.252       971.55198      1693.8233      10702.232     -1679.8143      299.22302     -254.90864      140786.14      0.92133599    -7823.2697      282.84358      4424.4629    
    490000   9129.0652     -7527.6904      1831.8113     -6145.8654      4449.0008      3000.3648      938.15709      1676.9305      10906.357     -1777.2914      304.93013      780.43369      141113.96      0.91919567    -7809.7811      285.31947      4442.6894    
    492000   9062.6889     -7573.4277      1868.3475     -6144.7389      4481.1624      3092.2759      949.86828      1678.1691      10711.032     -1648.3434      299.46907      537.53639      140649.6       0.9222304     -7817.9864      285.72792      4460.8185    
    494000   8805.9045     -7630.858       1864.007      -6143.6787      4261.5637      3083.0155      963.65251      1672.0713      10736.131     -1930.2267      300.17081     -352.1402       139199.53      0.93183745    -7885.603       286.21809      4478.832     
    496000   8793.4668     -7520.3565      1876.0498     -6143.4264      4297.1041      3046.3495      965.16142      1687.3889      10585.196     -1791.7291      295.95082     -308.98845      140679.14      0.92203678    -7761.6708      288.45459      4496.939     
    498000   9062.6427     -7517.7421      1855.589      -6144.5506      4326.732       3030.9821      968.16183      1728.8085      10814.662     -1752.0192      302.36644      618.84792      141060.61      0.91954329    -7775.5606      289.27395      4515.1446    
    500000   9137.9687     -7545.2441      1867.9208     -6143.5229      4376.9133      3040.8943      948.34756      1737.4385      10855.221     -1717.2527      303.50044      318.80497      140822.16      0.92110033    -7796.2423      290.94886      4533.3859    
    502000   8983.6194     -7547.1643      1832.3012     -6145.9816      4377.9732      3095.5891      926.72206      1670.2221      10773.958     -1790.3382      301.22839     -323.68558      140635.27      0.92232439    -7832.4498      292.17434      4551.6436    
    504000   8961.9171     -7536.9951      1854.9416     -6144.0928      4408.3215      3003.0216      923.062        1722.1402      10731.518     -1769.601       300.04183      1018.9746      140681.09      0.92202395    -7802.0409      294.74755      4569.8358    
    506000   8956.0403     -7517.2422      1855.8936     -6145.2066      4294.4631      3025.5234      942.54916      1682.604       10817.456     -1861.4155      302.44456     -439.46203      142060.05      0.91307398    -7782.2922      297.90323      4588.1423    
    508000   8869.6336     -7460.3959      1880.8059     -6144.1454      4393.3538      2946.4023      943.01766      1659.566       10651.029     -1781.3956      297.79145      794.04833      141703.51      0.91537136    -7695.6424      298.40086      4606.3917    
    510000   8887.5648     -7561.7647      1869.5137     -6144.1117      4445.6786      3030.5531      951.66437      1640.973       10655.058     -1767.4936      297.9041      -299.27463      140724.67      0.92173845    -7809.1354      296.91881      4624.7269    
    512000   9019.1648     -7605.2826      1835.4227     -6144.6739      4445.7537      3006.7026      926.21357      1742.5459      10812.483     -1793.318       302.30552      573.36715      140488.28      0.92328939    -7882.1574      298.11841      4643.1404    
    514000   9220.2499     -7499.9751      1882.6616     -6143.9652      4358.8712      3077.4371      966.80105      1749.9518      10828.467     -1608.2175      302.75243      633.88768      140592.75      0.92260332    -7731.2788      300.08272      4661.6228    
    516000   8928.1724     -7587.7199      1848.6103     -6145.4678      4373.4728      3067.5668      883.07676      1651.114       10837.519     -1909.3471      303.00552      618.54778      140503.31      0.92319064    -7855.0717      301.89333      4680.091     
    518000   8799.3201     -7621.1325      1843.5237     -6144.9306      4286.8933      2979.0068      965.90706      1663.479       10826.573     -2027.2532      302.69947     -226.19252      139902.39      0.92715597    -7899.0061      302.57483      4698.579     
    520000   8884.0447     -7561.2071      1874.1969     -6144.6709      4365.8062      2985.786       970.71194      1693.338       10700.084     -1816.0391      299.16296     -161.22677      141180.67      0.91876132    -7804.2729      304.05246      4717.0234    
    522000   9057.9174     -7543.0607      1873.6201     -6145.6643      4472.0106      3090.6612      993.5577       1661.7453      10655.048     -1597.1301      297.9038       461.47218      140648.34      0.92223865    -7785.6447      304.67292      4735.3932    
    524000   9141.191      -7556.7712      1880.1765     -6143.4958      4412.9337      3070.1419      966.62652      1676.6126      10834.967     -1693.7757      302.93414     -428.05961      140611.3       0.92248157    -7792.6702      305.72367      4753.7038    
    526000   9055.4379     -7492.083       1844.2534     -6145.604       4388.6294      3065.3645      945.8509       1670.7725      10778.254     -1722.8163      301.34852      600.6943       142235.08      0.91195042    -7764.04        309.58331      4771.8256    
    528000   9183.6965     -7539.6907      1858.3858     -6143.8422      4439.4308      3094.7673      1011.1374      1680.1931      10783.315     -1599.6186      301.49002      353.6629       140433.47      0.92364974    -7793.5756      306.55111      4789.8611    
    530000   8879.4172     -7458.9928      1856.8155     -6143.1024      4271.956       3001.2732      941.00986      1748.795       10661.663     -1782.2457      298.08875      243.82538      141643.84      0.915757      -7720.206       309.32629      4807.9372    
    532000   8861.0905     -7560.242       1870.9434     -6144.7066      4384.8429      2988.2522      941.31906      1668.4076      10712.274     -1851.1835      299.50379      608.6618       140645.09      0.92225998    -7806.9104      310.22103      4826.0137    
    534000   8958.3638     -7523.2122      1867.4563     -6144.8523      4395.3         2980.8367      941.56011      1655.4071      10785.868     -1827.5043      301.5614       415.13976      141354.83      0.91762932    -7771.5972      313.90861      4844.0532    
    536000   8839.2962     -7528.8109      1845.3048     -6144.9632      4333.6795      3042.2397      932.2181       1684.7907      10674.837     -1835.5413      298.4571      -300.94101      140894.54      0.92062714    -7802.5621      315.01072      4862.1679    
    538000   8966.0043     -7524.8076      1836.2061     -6143.8186      4493.814       3064.7189      938.46699      1694.1651      10607.259     -1641.255       296.56769     -434.74128      141254.23      0.91828284    -7802.6515      314.84823      4880.188     
    540000   9038.8526     -7526.2087      1865.7769     -6143.3528      4349.9638      3028.3113      963.33115      1669.7528      10831.278     -1792.4255      302.83101      507.55055      141403.84      0.9173113     -7777.7247      316.95445      4898.1353    
    542000   9054.8388     -7554.7901      1856.8547     -6146.3763      4367.5155      3050.5168      974.62856      1693.5972      10812.892     -1758.0536      302.31697     -508.21515      140764.98      0.92147446    -7816.7251      316.86646      4916.2286    
    544000   9011.2897     -7472.4868      1821.3566     -6144.7289      4441.3054      3002.8323      974.07191      1686.2368      10702.702     -1691.4127      299.23617     -99.895051      141000.34      0.91993634    -7767.7964      317.49234      4934.1792    
    546000   8963.1699     -7500.4168      1874.3312     -6143.3416      4413.9096      3072.9474      914.94804      1660.3772      10670.415     -1707.2449      298.33345     -153.28136      140929.8       0.92039679    -7741.0998      319.02647      4952.1007    
    548000   8903.8613     -7488.9298      1875.5426     -6144.3002      4415.2779      3059.2503      940.76295      1667.8558      10578.402     -1674.5404      295.76086     -490.50963      141058.46      0.91955733    -7733.3143      319.33322      4970.0778    
    550000   8975.9622     -7518.9905      1860.8336     -6143.7775      4362.5343      2985.3419      1000.1647      1691.2074      10738.648     -1762.686       300.24118      410.47968      140982.06      0.9200556     -7770.926       320.31842      4988.1724    
    552000   9012.4043     -7565.6356      1848.9638     -6144.6631      4351.3231      3068.8187      980.02813      1689.3787      10784.191     -1771.7862      301.5145       115.15866      140855.29      0.92088368    -7836.6564      322.57543      5006.3059    
    554000   8793.0141     -7556.7509      1800.4323     -6144.6389      4308.1516      3021.885       955.19318      1682.9463      10725.795     -1932.7814      299.88183     -145.31843      141026.4       0.91976636    -7870.8941      322.62918      5024.4963    
    556000   8988.2274     -7502.7855      1869.4206     -6145.9145      4414.6079      3025.0931      957.20813      1720.4952      10650.102     -1661.875       297.76554      105.52235      141458.97      0.91695379    -7752.2015      324.06942      5042.7264    
    558000   8914.0588     -7525.9872      1842.8866     -6145.4091      4303.9773      3008.0992      985.56901      1632.7395      10812.184     -1898.1248      302.29715     -228.16207      140074.6       0.9260161     -7799.498       323.42852      5060.5333    
    560000   8888.5369     -7536.0098      1863.1361     -6144.007       4371.9251      2981.7369      958.00092      1692.3181      10701.437     -1812.8997      299.20078      802.8473       140862.55      0.92083624    -7792.3983      325.41067      5078.3312    
    562000   9021.8247     -7580.3914      1861.7825     -6145.0135      4412.8123      3075.7694      995.26265      1720.4441      10681.159     -1659.3339      298.63383      187.16303      140294.07      0.92456753    -7835.59        325.63614      5096.0335    
    564000   8958.3632     -7520.9141      1840.3297     -6144.6223      4355.2519      2995.1965      997.56663      1722.2384      10713.316     -1754.9532      299.53293     -508.92801      140473.33      0.92338761    -7793.6279      327.5134       5113.804     
    566000   8899.1633     -7594.6206      1827.0279     -6143.372       4381.2166      2967.5401      928.67713      1714.7257      10817.968     -1918.8051      302.45889     -637.21997      140000.14      0.92650865    -7884.5963      328.27765      5131.5295    
    568000   9034.5674     -7547.2534      1879.0903     -6144.1503      4459.3306      3031.8651      916.99384      1705.688       10733.003     -1698.4359      300.08335     -1143.3101      141303.97      0.9179596     -7787.8305      331.78781      5149.6281    
    570000   9171.3897     -7518.0676      1841.8636     -6143.0878      4481.0441      3016.6455      961.47378      1695.5708      10835.947     -1664.5577      302.96156     -110.79998      141679.6       0.91552586    -7789.2848      333.64572      5167.6022    
    572000   9030.52       -7525.6008      1860.1728     -6143.0442      4388.3725      3066.5735      975.72411      1693.8171      10714.505     -1683.9849      299.56616     -725.96917      141235.09      0.91840728    -7778.5522      334.03969      5185.8496    
    574000   8989.7593     -7516.495       1851.6759     -6144.5776      4379.8667      3050.8866      931.49523      1691.0561      10745.851     -1756.0921      300.44257     -486.0226       140772.25      0.92142687    -7779.6519      334.70588      5204.1789    
    576000   8928.0258     -7629.2182      1814.016      -6143.5508      4529.0409      3003.2555      924.65765      1656.7694      10773.055     -1845.0295      301.20317     -141.82913      139235.58      0.9315962     -7930.0588      334.68283      5222.5899    
    578000   8790.928      -7595.4835      1832.29       -6145.4743      4319.0271      3012.2693      974.83645      1678.8285      10714.635     -1923.7065      299.56978      244.20793      140163.71      0.92542739    -7877.3953      336.11989      5240.7209    
    580000   9144.7694     -7570.2412      1871.3286     -6145.8631      4414.4859      3102.574       966.37455      1712.1564      10793.954     -1649.1848      301.78748      143.27687      140163.75      0.92542716    -7814.7521      337.99441      5258.9294    
    582000   8877.9556     -7586.8383      1830.751      -6145.9195      4307.3968      3040.4375      945.30239      1656.3741      10830.452     -1952.496       302.80791     -236.02393      140227.84      0.92500416    -7876.9891      338.37655      5276.8763    
    584000   9030.1065     -7576.4443      1834.9336     -6147.0328      4341.0463      3081.4231      973.78259      1722.8559      10799.542     -1769.4356      301.94371     -179.91228      139581.33      0.92928858    -7860.1288      339.11238      5294.9621    
    586000   8837.5269     -7527.467       1878.5068     -6144.4823      4288.2964      3054.708       959.93988      1660.1668      10667.858     -1830.3315      298.26197     -165.27329      141138.27      0.91903732    -7767.6142      341.35773      5313.0083    
    588000   9048.6986     -7548.2591      1847.2303     -6143.8279      4353.4195      3046.7889      975.33625      1676.9873      10841.023     -1792.3247      303.10348      25.929147      140640.13      0.92229249    -7815.8259      340.22122      5331.1093    
    590000   8893.2036     -7609.359       1873.6969     -6144.9634      4442.3546      3066.4214      898.70866      1669.6707      10696.674     -1803.4703      299.06762     -725.53984      139373.32      0.93067551    -7858.6553      339.10748      5349.273     
    592000   8895.1327     -7554.7733      1848.0849     -6145.1692      4345.522       3071.6213      929.38061      1665.0561      10735.41      -1840.2776      300.15065      74.461926      140010.82      0.92643794    -7826.7356      339.95306      5367.4716    
    594000   9052.4317     -7595.8676      1833.4107     -6144.3472      4511.204       3065.4038      958.8675       1674.2059      10749.555     -1697.1228      300.54611      15.221135      139844.94      0.92753686    -7874.0266      340.07465      5385.687     
    596000   8950.7601     -7627.1935      1857.8401     -6145.8224      4396.0509      3085.0155      928.95893      1705.0789      10750.832     -1800.0715      300.58182     -597.58822      139664.6       0.92873454    -7890.1552      341.09571      5404.098     
    598000   8994.4426     -7551.8415      1876.9421     -6143.863       4417.0915      3074.4625      948.21583      1715.8203      10657.615     -1663.1723      297.97558     -241.93083      140981.96      0.92005631    -7789.6582      343.34712      5422.4572    
    600000   9034.7496     -7558.2009      1850.0981     -6142.5562      4374.9468      3067.1816      948.06334      1668.1565      10827.061     -1792.3109      302.7131      -1145.4972      140697.94      0.92191357    -7823.5208      344.48264      5440.9525    
    602000   9279.23       -7562           1862.3064     -6144.3385      4468.0207      3103.161       951.70582      1649.6498      10950.725     -1671.4949      306.17062      234.98036      141083.44      0.91939451    -7813.8198      344.45947      5459.3675    
    604000   8907.2704     -7529.2695      1861.5328     -6145.6366      4313.9406      3112.2269      931.76153      1691.0992      10671.615     -1764.3449      298.36701      506.39114      141139.04      0.91903233    -7790.6725      344.67684      5477.5284    
    606000   9163.3464     -7503.2873      1876.1885     -6145.4292      4371.5801      3017.865       962.98755      1715.309       10868.133     -1704.7864      303.86143     -694.78681      140835.93      0.92101025    -7745.8821      345.92983      5495.7501    
    608000   8863.5819     -7582.2394      1841.8901     -6145.3607      4374.2536      3059.4027      960.34909      1738.4185      10616.868     -1753.2861      296.83634      982.21421      139804.21      0.92780712    -7853.4832      343.92026      5513.8791    
    610000   9106.9058     -7567.3317      1848.7455     -6143.7836      4512.5347      3036.5766      918.42123      1677.4173      10824.326     -1717.42        302.63663     -1043.4229      140572.29      0.92273759    -7832.1996      347.09288      5532.1035    
    612000   8872.9603     -7599.3892      1856.1078     -6144.4827      4390.384       2989.1719      950.44025      1673.2036      10757.525     -1884.5643      300.76894      10.619489      140448.41      0.92355148    -7859.5851      347.46775      5550.4187    
    614000   9024.6994     -7543.5267      1868.5545     -6143.8486      4398.6814      3058.584       947.74027      1644.3704      10794.144     -1769.4448      301.79279     -14.888602      140865.24      0.92081861    -7792.6055      350.76785      5568.8214    
    616000   9048.8606     -7495.2979      1859.3216     -6144.5346      4285.5166      3056.9495      963.21677      1680.8559      10842.833     -1793.9721      303.15407      1411.4758      141431.88      0.91712944    -7750.6472      352.34468      5587.0393    
    618000   9106.6595     -7520.7972      1835.0847     -6144.379       4317.2664      3138.5121      951.84988      1713.5886      10815.534     -1708.8744      302.39083      32.866741      140578.13      0.92269925    -7802.0495      351.79215      5605.3126    
    620000   8991.0657     -7564.275       1852.8556     -6143.2739      4409.1722      3022.0471      938.77068      1664.9626      10810.807     -1819.7408      302.25865     -252.26594      140024.91      0.92634474    -7825.2046      353.18757      5623.7403    
    622000   9256.7165     -7444.791       1848.816      -6144.6627      4462.0687      3074.2263      975.518        1689.8629      10795.678     -1538.9619      301.83568     -545.78014      142165.5       0.91239672    -7708.9952      359.50699      5642.0148    
    624000   9178.8475     -7446.5441      1870.7854     -6144.6919      4370.6197      3031.7733      930.84542      1697.6421      10868.418     -1689.5701      303.8694      -12.228789      141991.92      0.9135121     -7692.5643      359.7629       5660.2054    
    626000   8954.9365     -7564.0105      1865.5689     -6143.8084      4278.5601      3034.3678      953.2966       1710.5939      10820.368     -1865.4317      302.52599      86.251118      140233.11      0.92496942    -7814.8582      358.03272      5678.4185    
    628000   8869.7204     -7442.2569      1863.8999     -6146.1457      4287.9942      3021.2847      930.45083      1698.9036      10655.59      -1785.8694      297.91896      148.99992      142477.67      0.91039764    -7696.087       362.5315       5696.5559    
    630000   9091.6753     -7484.0817      1866.8842     -6144.7159      4368.3054      3022.9574      944.75282      1701.7412      10815.832     -1724.1565      302.39915      482.50558      141509.44      0.91662674    -7737.3469      362.66344      5714.5908    
    632000   8985.3819     -7514.0093      1853.5937     -6143.7341      4428.4318      3049.6971      984.5218       1746.4957      10580.385     -1595.0033      295.81632     -495.32882      140876.36      0.92074595    -7775.1263      361.92595      5732.6641    
    634000   9013.0635     -7615.7446      1873.7882     -6143.0746      4343.5573      3095.6744      961.95299      1636.6993      10860.21      -1847.147       303.63993     -236.0388       139998.5       0.92651949    -7861.9823      362.91733      5750.6662    
    636000   8990.6306     -7542.4959      1864.7452     -6144.9832      4390.8862      3085.9238      942.86754      1648.0323      10745.655     -1755.0241      300.43708     -0.65636338     140832.72      0.92103128    -7798.2453      364.61798      5768.5055    
    638000   9106.1262     -7506.3036      1830.0807     -6144.6348      4395.6482      3023.8813      902.1817       1764.7987      10840.474     -1734.3479      303.08812     -617.20628      141009.79      0.91987467    -7795.1697      367.03273      5786.4772    
    640000   8915.3151     -7525.7474      1818.238      -6145.1312      4366.6895      3042.9936      900.22911      1732.7325      10725.311     -1809.9958      299.86829     -358.66209      140385.25      0.92396701    -7824.4235      365.8514       5804.5378    
    642000   8865.4752     -7562.896       1869.3526     -6146.0803      4377.4695      3002.2432      943.09438      1633.6796      10748.612     -1883.1369      300.51976      170.60101      141247.12      0.91832904    -7817.5318      368.9309       5822.6511    
    644000   8940.4999     -7571.1637      1828.2136     -6146.5082      4320.7821      3010.1221      1006.5788      1718.5731      10773.902     -1833.4023      301.22684      819.31194      140133.88      0.92562441    -7860.4435      368.1205       5840.789     
    646000   9053.4855     -7537.5254      1864.6311     -6144.3307      4427.519       3080.8065      963.02557      1670.4034      10728.956     -1675.4706      299.9702       373.32714      140505.93      0.9231734     -7793.8         371.11323      5858.8239    
    648000   8937.1158     -7515.8467      1869.7471     -6143.8708      4414.664       2996.1118      933.0688       1710.314       10672.928     -1735.8119      298.40371     -75.554715      141305         0.91795291    -7759.2417      371.94705      5876.947     
    650000   8929.326      -7621.5756      1851.6184     -6143.0683      4334.0127      2992.8616      927.70459      1690.0894      10897.683     -1968.3572      304.68763      150.97178      140035.39      0.92627541    -7881.6702      371.80589      5895.1079    
    652000   8914.5756     -7589.8096      1830.7768     -6145.3402      4417.8624      3013.0252      938.94876      1751.4259      10697.686     -1783.1106      299.09593      744.78663      139829.53      0.9276391     -7872.9057      372.88207      5913.2438    
    654000   9060.3413     -7576.2309      1859.6539     -6143.7899      4368.1484      3016.8003      951.16606      1711.3048      10873.289     -1812.9474      304.00559     -435.90981      140339.45      0.92426853    -7832.5753      372.81456      5931.4241    
    656000   9044.2941     -7486.776       1873.1816     -6144.3129      4462.3592      3033.5596      958.46032      1701.5407      10646.281     -1601.9874      297.65871      231.53057      142291.28      0.91159019    -7725.7469      376.32868      5949.6865    
    658000   8915.6259     -7567.1997      1869.5261     -6145.9079      4329.6972      3055.5257      918.90412      1723.0575      10732.023     -1816.397       300.05594     -468.01833      141280.05      0.91811503    -7816.356       377.48632      5968.0548    
    660000   9151.5027     -7580.8005      1888.2496     -6144.4483      4367.2763      3093.1397      971.92148      1652.324       10903.84      -1752.3377      304.85978      962.10069      140836.25      0.92100814    -7807.8626      380.0155       5986.2393    
    662000   8824.022      -7531.0661      1846.676      -6145.1168      4292.8589      2991.2462      932.78328      1687.9774      10748.663     -1924.6411      300.52119      333.64801      140482.6       0.92332673    -7804.8291      380.66005      6004.5698    
    664000   9057.6848     -7567.5646      1863.5386     -6145.9985      4534.8121      3065.3795      944.68719      1671.3817      10691.449     -1633.764       298.92154     -246.18419      140744.04      0.92161155    -7818.835       380.95755      6022.8758    
    666000   9047.3182     -7620.7146      1830.2303     -6144.8486      4426.9022      3088.2879      923.26786      1693.1717      10851.022     -1803.7033      303.38302     -184.81704      140004.41      0.92648034    -7908.8193      379.94305      6041.4262    
    668000   8916.2372     -7569.0588      1873.0193     -6144.1952      4411.1586      3033.4782      930.84587      1708.628       10672.361     -1756.1241      298.38787      268.3666       140363.39      0.92411086    -7812.1232      380.67435      6060.0035    
    670000   8857.8322     -7582.1243      1869.0858     -6144.1167      4371.147       2976.9167      922.14458      1695.9159      10748.863     -1891.031       300.52678      257.57057      140823.07      0.92109437    -7828.3421      382.37822      6078.5552    
    672000   8911.5717     -7571.6671      1838.1511     -6144.8399      4342.3048      3049.8258      995.64616      1657.269       10744.882     -1833.3101      300.41547     -202.79647      140565.86      0.92277979    -7849.4194      382.83129      6097.0978    
    674000   9076.2651     -7507.6581      1857.842      -6145.478       4334.1301      3035.475       951.88654      1712.6134      10837.454     -1761.1891      303.00369      82.928521      140701.84      0.921888      -7764.1522      382.91261      6115.5794    
    676000   8858.8865     -7624.8752      1874.8176     -6143.4721      4385.8159      3071.9784      954.36991      1702.0114      10638.241     -1779.3541      297.43389      8.8187361      139492.78      0.92987851    -7865.7118      382.89822      6133.9276    
    678000   9080.7614     -7574.6802      1883.2239     -6144.6423      4428.8985      3070.1577      909.16661      1664.7963      10843.841     -1763.0795      303.18226     -157.643        140299.19      0.92453379    -7807.6588      385.57367      6152.4871    
    680000   9015.6844     -7547.0799      1877.355      -6142.7786      4445.7569      3100.8841      952.37679      1676.6955      10652.475     -1636.7903      297.83186      546.80802      140502.14      0.92319827    -7783.8012      385.33373      6170.8738    
    682000   9255.9761     -7502.5686      1880.8444     -6144.8002      4420.0128      3058.236       926.70126      1697.1542      10920.396     -1664.4202      305.32267      187.34578      141477.83      0.91683156    -7742.9835      390.40281      6189.2423    
    684000   9027.4821     -7499.5774      1892.5997     -6143.6122      4375.137       3036.3153      967.4974       1639.7975      10759.325     -1731.8428      300.81928     -613.29381      141651.19      0.91570945    -7727.7492      389.75296      6207.6315    
    686000   8972.2965     -7590.0678      1806.5773     -6145.4751      4409.7776      3037.204       957.79466      1678.9019      10817.584     -1845.2875      302.44814     -127.80377      140331.73      0.92431935    -7897.2753      390.33155      6225.8193    
    688000   8832.7719     -7517.3829      1817.2964     -6145.7231      4401.5137      3023.8839      915.84843      1689.5163      10647.819     -1815.0472      297.7017      -469.85801      141574.82      0.91620347    -7817.5951      394.58935      6244.0502    
    690000   8599.4831     -7570.0059      1817.7118     -6145.9915      4268.5775      2983.4407      1012.7651      1689.7985      10543.187     -1943.7038      294.77629      219.14418      140459.83      0.92347641    -7866.3461      392.77683      6262.245     
    692000   8892.6166     -7490.2782      1863.6391     -6145.1906      4378.1854      2934.4916      959.31843      1668.8454      10723.605     -1830.9888      299.8206       669.31172      141489.44      0.91675631    -7741.0244      394.00114      6280.3325    
    694000   8875.7898     -7566.16        1856.6118     -6144.8615      4391.3178      2992.633       907.1723       1707.5359      10731.54      -1855.7507      300.04246     -349.70105      140057.37      0.92613006    -7832.4622      392.76894      6298.4142    
    696000   8982.7244     -7551.8576      1836.6349     -6143.5944      4310.891       3083.6091      942.45244      1713.0344      10791.554     -1808.8301      301.72038      645.18305      141113.4       0.9191993     -7829.8166      394.76487      6316.5145    
    698000   9007.3929     -7555.1546      1835.3307     -6143.6104      4436.2798      3050.8144      962.33166      1674.3614      10747.04      -1739.6472      300.47581     -594.15379      140326.95      0.92435087    -7839.0394      395.70098      6334.5388    
    700000   9135.3257     -7494.4987      1873.2413     -6143.8473      4339.7927      3114.1289      978.01349      1707.8278      10760.668     -1625.3419      300.85682     -313.87719      141173.6       0.91880735    -7737.3137      398.93927      6352.5413    
    702000   8781.7437     -7583.8314      1838.9305     -6144.4104      4359.3139      3040.275       954.43885      1674.0656      10642.962     -1861.218       297.56589     -926.14283      140172.71      0.92536795    -7855.8448      400.33641      6370.4437    
    704000   8905.5823     -7544.008       1893.0161     -6146.1416      4349.8487      3020.4687      946.81347      1659.9994      10725.586     -1820.0032      299.87596     -574.97182      141189.86      0.91870151    -7766.6322      400.31973      6388.4222    
    706000   8981.1673     -7584.9051      1848.3204     -6142.4436      4383.5854      3052.3147      940.96146      1677.5277      10805.806     -1824.6389      302.11885      237.06722      140713.08      0.92181436    -7851.5203      402.01845      6406.2027    
    708000   9152.1815     -7532.0568      1857.8116     -6143.8232      4442.0216      3018.7269      957.78709      1764.2327      10787.482     -1635.3001      301.60651     -247.83189      141100.94      0.91928046    -7790.4316      403.70972      6424.1774    
    710000   9131.5701     -7583.8046      1850.8289     -6145.9535      4390.8102      3051.2306      941.47948      1733.2862      10893.693     -1762.1227      304.57606     -123.34178      140147.03      0.92553756    -7844.3914      402.55443      6442.0973    
    712000   9032.3934     -7552.794       1893.2158     -6145.0182      4432.8252      3106.7388      963.27179      1702.4499      10631.704     -1599.3106      297.25113      1060.7544      140475.97      0.92337031    -7775.7141      403.22991      6460.0144    
    714000   9055.5416     -7570.7299      1825.5672     -6145.6216      4476.264       3052.8772      925.00003      1697.6081      10794.577     -1739.035       301.80488     -152.79575      140215.89      0.925083      -7865.7052      403.83716      6477.9389    
    716000   8913.9278     -7537.2635      1857.8798     -6145.3738      4330.4344      3038.0149      957.08171      1676.4131      10736.741     -1822.8133      300.18786      248.22591      141270.05      0.91818002    -7797.8204      405.75009      6495.7377    
    718000   8999.2841     -7591.7993      1862.3809     -6145.696       4450.344       3027.0094      926.67492      1685.4279      10784.942     -1785.6583      301.53552      681.51972      140831.36      0.92104016    -7846.4432      408.10514      6513.57      
    720000   9050.5126     -7491.1953      1856.4305     -6143.8861      4415.6425      3052.4321      926.22102      1707.7997      10727.068     -1676.5556      299.91742     -510.37517      141380.43      0.91746317    -7751.8631      411.03352      6531.4961    
    722000   8925.3328     -7546.0727      1872.3338     -6144.5081      4473.7262      3037.3552      930.89347      1638.1548      10663.45      -1738.1174      298.13873     -256.42359      140979.53      0.92007212    -7792.5495      411.44095      6549.3679    
    724000   9113.6321     -7544.7088      1845.2847     -6144.7551      4375.9858      3031.1765      986.08248      1687.6995      10876.867     -1763.2349      304.10563      912.38315      140562.5       0.92280187    -7815.7397      408.78323      6567.4665    
    726000   8967.2221     -7605.8724      1836.0524     -6144.1027      4398.0636      3027.8453      912.81039      1754.2412      10788.184     -1820.9622      301.62616      132.96777      140072.17      0.92603215    -7885.3629      409.40687      6585.445     
    728000   9260.4868     -7466.2636      1872.4299     -6144.9819      4379.069       3064.3081      939.47943      1704.8656      10911.58      -1651.0936      305.07618      41.688555      141902.73      0.91408624    -7711.3782      413.23362      6603.478     
    730000   8926.8116     -7549.1727      1867.0305     -6144.061       4323.854       3049.8309      940.79981      1734.4684      10704.062     -1777.2502      299.27418     -31.142496      140598.95      0.9225626     -7799.7666      412.49928      6621.6401    
    732000   9024.3561     -7548.6135      1865.5796     -6146.5787      4356.8728      3053.231       952.05893      1650.061       10841.745     -1817.3888      303.12366     -297.81359      140617.23      0.92244271    -7800.8455      414.29088      6639.7022    
    734000   8963.5269     -7503.7446      1861.1401     -6144.8796      4379.9996      3045.9064      902.91948      1704.1291      10718.056     -1754.5295      299.66546     -547.11392      141600.93      0.91603449    -7763.8586      416.80303      6657.7128    
    736000   9157.4606     -7535.0748      1851.6058     -6145.7697      4389.0578      3082.6206      988.64892      1682.5473      10843.825     -1686.3642      303.18181     -148.06753      141082.9       0.91939801    -7803.634       418.65877      6675.694     
    738000   8927.8161     -7589.5461      1841.1803     -6143.3168      4405.0734      3081.2123      947.6155       1701.7004      10683.897     -1756.081       298.7104      -200.55298      139290.11      0.93123152    -7861.3788      417.5602       6693.7625    
    740000   8901.5219     -7555.801       1842.0412     -6145.1161      4338.0878      3061.987       985.03259      1664.813       10710.478     -1808.9557      299.45356      406.85008      140417.6       0.92375412    -7831.7526      421.17829      6711.7057    
    742000   9092.4683     -7559.565       1853.5152     -6145.7836      4450.6655      3096.3933      946.06791      1653.14        10798.035     -1705.5668      301.90158      310.75734      140060.4       0.92610997    -7824.5773      421.42532      6729.659     
    744000   9012.4748     -7485.9091      1840.6863     -6143.3036      4329.2203      3031.697       954.53563      1698.3106      10787.238     -1774.7629      301.59969      1040.4479      141578.29      0.91618099    -7756.9825      425.14193      6747.5784    
    746000   9019.6474     -7554.0256      1879.2637     -6145.9552      4426.0933      3094.3617      940.52143      1671.0757      10708.312     -1688.665       299.39302      834.58017      140722.81      0.92175059    -7793.6866      425.9141       6765.4689    
    748000   8901.1321     -7555.7536      1875.6385     -6142.2941      4373.2203      3005.9415      929.32535      1674.7356      10740.319     -1839.1864      300.28788     -579.35116      140334.23      0.92430289    -7794.992       427.09708      6783.5164    
    750000   8940.7533     -7501.9016      1861.2994     -6144.7627      4427.7651      3031.4996      956.94323      1682.9117      10626.999     -1686.2454      297.11958     -101.14017      141604.43      0.91601185    -7752.5011      430.69604      6801.2331    
    752000   9004.5919     -7466.6141      1863.3473     -6145.5772      4406.0405      3075.5511      943.59226      1640.6362      10687.616     -1683.024       298.81437     -459.02097      142076.09      0.91297089    -7724.7357      432.99134      6819.2839    
    754000   8830.6775     -7606.4731      1883.2177     -6145.2532      4344.8509      3056.637       957.72748      1652.2133      10687.757     -1857.08        298.81833     -462.32658      140084.36      0.92595159    -7839.9233      429.538        6837.3239    
    756000   9120.6625     -7512.3249      1861.343      -6144.8702      4455.8582      3130.8525      969.91129      1710.4335      10649.459     -1528.7967      297.74755      612.32214      140714.57      0.92180463    -7768.0212      432.20004      6855.3135    
    758000   8797.1019     -7641.8927      1844.6966     -6146.0235      4282.1929      3072.8321      915.23957      1673.2765      10796.78      -1999.6786      301.8665      -380.49872      139053.31      0.93281736    -7916.0186      430.1966       6873.4711    
    760000   9078.1441     -7501.804       1880.3948     -6144.8915      4372.2153      3083.2533      935.32945      1724.2761      10729.371     -1651.2266      299.98179     -373.01432      140835.7       0.92101178    -7738.1881      433.38077      6891.4379    
    762000   8997.9531     -7484.0066      1867.1776     -6144.4337      4318.7648      3072.2896      958.37896      1691.8088      10717.974     -1720.0206      299.66314      839.84527      141859.28      0.91436626    -7732.4771      436.98995      6909.4967    
    764000   8822.3199     -7596.7823      1845.4603     -6143.9228      4400.182       3002.489       985.53977      1634.7403      10694.613     -1872.2936      299.01002      794.39139      140171.47      0.92537617    -7864.939       432.63651      6927.6473    
    766000   9009.1249     -7504.3856      1860.5574     -6143.6685      4323.6575      3065.5974      929.32579      1733.5872      10744.454     -1735.3287      300.40349     -151.95014      141285.76      0.91807795    -7756.2302      435.10293      6945.8997    
    768000   9023.3197     -7638.5181      1890.238      -6143.9573      4416.5172      3133.1313      981.51835      1694.8416      10689.549     -1666.229       298.86841     -380.51647      139487.87      0.92991126    -7865.4768      433.01251      6964.1541    
    770000   8816.3272     -7583.5978      1865.7312     -6143.5492      4260.774       3052.4953      946.27838      1706.4         10711.795     -1895.468       299.4904      -353.23762      140325.15      0.92436274    -7833.5222      437.73764      6982.322     
    772000   8927.2422     -7555.5952      1834.1614     -6145.4322      4381.708       3053.9667      968.1685       1634.8552      10755.41      -1828.1676      300.70982      4.6575135      140834.06      0.9210225     -7840.2574      440.15529      7000.4923    
    774000   8982.2568     -7529.0478      1860.4544     -6145.6803      4367.6059      3021.8755      950.24824      1733.2448      10723.556     -1741.2992      299.81922      489.461        141568.24      0.91624601    -7783.6357      443.27097      7018.6168    
    776000   9139.9298     -7558.7188      1862.3726     -6144.0676      4473.5444      3031.4435      966.36889      1703.3366      10805.65      -1665.7203      302.11448     -394.42999      140901.31      0.92058292    -7810.6895      444.77457      7036.9111    
    778000   8847.2127     -7549.1553      1830.9297     -6144.7228      4333.8796      3021.4262      923.29422      1647.2868      10784.274     -1937.0617      301.51684     -4.2515566      140928.11      0.92040781    -7835.4121      445.48074      7055.168     
    780000   9181.0914     -7528.2339      1884.9009     -6143.4437      4433.0407      3070.5278      954.39963      1678.9098      10830.99      -1649.8987      302.82296      109.28718      141424.65      0.91717631    -7759.9229      447.96394      7073.4239    
    782000   8898.7666     -7526.5268      1857.9636     -6145.052       4323.0897      3051.591       971.75525      1636.6344      10729.311     -1830.5448      299.98013     -625.89071      141041.37      0.91966871    -7783.5541      450.68145      7091.6701    
    784000   8866.3004     -7542.2231      1877.7891     -6143.9889      4360.6088      2973.6894      956.38971      1639.8945      10744.141     -1877.8405      300.39475      551.33815      140093.76      0.92588945    -7780.2376      449.98484      7109.9773    
    786000   9175.0328     -7538.2889      1894.0131     -6145.046       4442.6016      3073.7448      933.73636      1689.951       10824.321     -1649.288       302.6365      -730.95029      141149.09      0.91896687    -7764.2613      452.12213      7128.2633    
    788000   9014.1959     -7463.8148      1842.5106     -6143.8603      4386.7692      2952.959       920.12503      1702.8138      10816.693     -1802.4974      302.42324      433.82724      141665.11      0.91561953    -7734.1292      455.9597       7146.3948    
    790000   9191.6307     -7539.6034      1840.5896     -6144.733       4437.5084      3065.1904      966.94934      1714.2743      10851.455     -1659.8246      303.39515     -1.2762982      140817.65      0.92112984    -7813.3473      455.08965      7164.5351    
    792000   8920.1573     -7523.4326      1868.6414     -6144.2684      4349.0117      3076.7911      957.3122       1702.7381      10633.364     -1713.2066      297.29754      635.23458      139926.07      0.92699904    -7766.3699      456.58062      7182.4207    
    794000   9014.819      -7526.3096      1843.9853     -6144.0197      4372.3732      3004.3078      919.30296      1708.7092      10836.47      -1821.6509      302.97617     -158.24836      141114.3       0.91919346    -7799.4621      458.68959      7200.375     
    796000   9150.7835     -7535.2446      1847.3496     -6143.3334      4399.7639      3075.3097      940.46049      1716.1736      10850.304     -1699.5207      303.36296     -826.6139       140985.49      0.92003324    -7805.821       457.67805      7218.3357    
    798000   8990.1563     -7519.0178      1844.4221     -6145.2105      4433.0127      2976.3014      945.59316      1676.6367      10778.419     -1788.2623      301.35312     -293.48313      141176.02      0.91879157    -7792.1063      460.07869      7236.1888    
    800000   8785.571      -7519.8334      1839.7583     -6143.5214      4349.2754      2990.3992      932.13264      1655.2954      10682.065     -1896.4938      298.65917     -174.31314      140749.57      0.92157538    -7793.8696      459.14119      7254.1754    
    802000   8999.5456     -7509.3021      1856.1995     -6145.2393      4389.4595      3035.2553      938.08972      1689.6139      10745.469     -1745.9235      300.43189     -239.53755      141348.86      0.91766806    -7770.8816      463.98828      7272.1014    
    804000   9160.328      -7520.0612      1824.714      -6144.6106      4478.6857      3046.6278      928.78356      1695.8544      10850.334     -1690.0063      303.36381     -637.60894      141192.93      0.91868154    -7815.2038      464.24466      7290.2345    
    806000   8857.2111     -7561.6239      1845.8562     -6145.7013      4359.1753      3032.0626      946.79237      1640.3366      10740.313     -1883.1021      300.28773     -213.20372      140534.46      0.922986      -7833.183       464.36748      7308.3458    
    808000   9018.0878     -7594.6289      1855.8492     -6144.1424      4327.474       3023.5399      963.05395      1701.0722      10885.87      -1867.7822      304.35735      472.74425      139919.93      0.92703978    -7851.911       463.52547      7326.6832    
    810000   9139.8452     -7538.165       1862.7412     -6143.4563      4427.2042      3015.835       984.20526      1689.1774      10842.303     -1702.4582      303.13927     -193.30988      141140.74      0.91902122    -7790.3058      464.27026      7344.8948    
    812000   8911.5683     -7627.4889      1855.7953     -6143.5045      4327.6993      3041.4952      953.76311      1697.4347      10806.374     -1894.8058      302.13473     -567.38153      139803.18      0.92781395    -7885.1425      461.84898      7363.054     
    814000   8857.288      -7615.3413      1882.6744     -6146.1971      4337.9961      3044.8759      952.35902      1637.0187      10763.902     -1906.6143      300.94726      278.84995      140001.97      0.92649654    -7853.8692      462.8578       7381.1675    
    816000   8868.2615     -7477.7143      1860.2987     -6144.3685      4302.8257      3095.169       913.61031      1668.2891      10650.152     -1781.89        297.76691     -203.18509      141856.03      0.91438722    -7732.1933      466.40407      7399.4156    
    818000   9185.6953     -7566.9778      1856.3579     -6145.4864      4452.7773      3164.3415      978.6534       1699.6245      10746.405     -1560.7096      300.45805     -914.05776      140451.48      0.92353131    -7826.8195      465.73531      7417.7455    
    820000   9244.0643     -7500.2143      1868.125      -6144.0981      4517.0846      3036.2272      975.09657      1685.3199      10806.523     -1562.4591      302.1389      -1050.4215      141310.45      0.9179175     -7744.3263      468.15355      7435.945     
    822000   8745.9446     -7587.7601      1848.0817     -6145.2037      4355.4129      3047.6054      908.57295      1720.2972      10598.938     -1852.9936      296.33504     -379.24162      140669.71      0.92209858    -7861.5342      467.733        7454.1007    
    824000   9095.258      -7579.8417      1863.7697     -6144.8705      4393.1126      3083.9384      955.12062      1708.2683      10815.76      -1720.5025      302.39716      420.31772      140903.78      0.92056676    -7833.5338      469.36321      7472.3387    
    826000   8966.6117     -7627.6492      1869.2773     -6142.8994      4421.1381      3005.3102      931.55653      1689.6143      10820.264     -1853.6521      302.52307      402.3132       139524.53      0.92966693    -7874.2772      468.31137      7490.5601    
    828000   9031.1484     -7566.1098      1876.1217     -6145.3344      4440.7422      2997.8334      917.93417      1701.9085      10808.052     -1776.9041      302.18165      649.97532      140596.33      0.9225798     -7806.5913      471.15722      7508.8056    
    830000   8942.1757     -7591.0577      1872.6352     -6144.3221      4359.1152      3106.7005      972.61026      1709.8896      10656.605     -1714.429       297.94733      444.81889      140149.05      0.92552418    -7832.7499      474.30238      7526.7849    
    832000   8901.9381     -7574.272       1864.8891     -6144.8849      4388.7422      3095.5782      947.01584      1650.4016      10674.468     -1772.53        298.44677     -869.54763      140353.8       0.92417403    -7827.9685      472.86156      7544.8303    
    834000   8880.7356     -7595.8641      1836.6357     -6144.393       4407.0568      3060.6559      959.26186      1697.4219      10659.96      -1779.2249      298.04116      509.09203      140016.08      0.92640317    -7874.0948      475.4288       7562.9267    
    836000   9101.7684     -7550.9999      1836.3047     -6144.0053      4358.4193      3123.226       913.39044      1726.5455      10838.888     -1737.1191      303.04377      916.90597      140456.09      0.92350099    -7828.0846      477.7217       7580.9152    
    838000   8881.2464     -7516.5112      1856.2694     -6143.6696      4286.7181      2974.5248      978.94539      1696.7069      10748.263     -1867.0162      300.50999      224.61697      140626.26      0.92238346    -7770.6299      479.74717      7598.8984    
    840000   8895.5016     -7539.8743      1877.2402     -6144.5929      4353.5114      3052.3896      929.3362       1645.7304      10721.761     -1826.2595      299.76904     -116.958        141359.29      0.91760039    -7779.4003      481.92757      7616.7545    
    842000   8965.0715     -7565.5491      1858.1227     -6145.8414      4347.7934      3062.3267      993.07129      1679.4795      10735.668     -1770.597       300.15787     -83.840934      141009.92      0.91987385    -7822.3169      481.62825      7634.5512    
    844000   8971.2677     -7481.8744      1852.7344     -6144.6157      4393.3043      3022.97        940.14056      1715.7921      10672.816     -1701.5487      298.40059     -70.908587      141449.93      0.91701239    -7744.4627      481.70244      7652.598     
    846000   8912.8281     -7561.1785      1846.8432     -6145.1486      4418.2485      3020.7683      934.08151      1661.8939      10737.32      -1824.4917      300.20404     -538.27652      140793.39      0.92128854    -7837.9897      483.82156      7670.6774    
    848000   9062.3196     -7486.1531      1890.0622     -6144.7265      4329.0429      3050.6383      968.50733      1669.8203      10785.128     -1722.8086      301.54071      32.409999      141530.13      0.91649271    -7714.103       484.91706      7688.6891    
    850000   9210.9513     -7567.1024      1856.4469     -6142.4567      4371.2483      3057.3025      959.74767      1716.1592      10959.606     -1748.6545      306.41892      41.072321      140881.68      0.92071117    -7823.6628      484.52134      7706.8117    
    852000   8935.2229     -7576.7259      1824.3483     -6145.7477      4402.9741      3030.8834      934.39476      1640.2654      10824.831     -1889.6076      302.65075      20.863264      140034.22      0.92628315    -7867.9772      482.05996      7724.992     
    854000   8988.6045     -7549.4385      1871.1044     -6142.3773      4392.0826      2981.1476      934.32276      1682.0422      10819.721     -1831.1162      302.50788     -650.77164      140493.41      0.9232557     -7790.1603      484.95037      7743.3905    
    856000   8981.5924     -7476.6925      1836.2113     -6144.1882      4335.8435      3056.0747      987.45655      1673.4854      10713.402     -1731.8093      299.53532     -165.98933      141329.72      0.91779236    -7756.7362      487.46308      7761.4452    
    858000   9068.7819     -7556.5166      1865.0722     -6144.9392      4410.1361      2979.0609      954.86416      1669.4981      10891.606     -1822.8245      304.51773     -972.21625      140749.72      0.9215744     -7804.6028      487.17894      7779.5078    
    860000   8944.5103     -7511.0446      1854.029      -6145.4237      4423.5016      3034.0992      988.81527      1647.8426      10652.691     -1708.1807      297.83791      57.547578      141034.95      0.91971056    -7776.9947      488.53861      7797.5716    
    862000   8669.313      -7564.8632      1861.9137     -6145.6656      4261.5886      2958.5303      961.38962      1647.2289      10689.191     -2019.8777      298.8584       652.90751      140762.04      0.92149371    -7820.0664      489.91744      7815.638     
    864000   8932.8082     -7483.0442      1882.4086     -6145.9365      4312.5153      3054.1678      930.44373      1711.8963      10670.357     -1737.549       298.33184      99.343439      141452.69      0.91699449    -7722.4998      491.04404      7833.7606    
    866000   8910.4487     -7550.8139      1853.2119     -6144.7229      4345.7537      2986.7643      956.11688      1673.7655      10790.373     -1879.9245      301.68736     -426.85174      141148.64      0.91896977    -7812.562       490.35145      7851.9454    
    868000   9033.3916     -7562.8548      1865.9796     -6144.4092      4345.1816      3113.9393      931.33627      1705.1345      10779.084     -1745.6927      301.37173      140.79071      140783.01      0.92135648    -7815.3956      493.56947      7870.3061    
    870000   8996.4996     -7554.9876      1854.3219     -6142.9332      4353.4562      3021.4793      990.2596       1685.4028      10789.5       -1793.0008      301.66296     -158.41217      140721.58      0.92175867    -7820.8163      493.7166       7888.337     
    872000   9047.7913     -7546.848       1838.751      -6141.9588      4438.7341      3101.7078      978.349        1703.0291      10676.027     -1628.2358      298.49036     -426.04027      140350.62      0.92419498    -7824.0949      493.96829      7906.4026    
    874000   9034.7599     -7540.9262      1862.9341     -6144.1616      4415.3528      3016.4035      964.23762      1689.3004      10771.619     -1736.8594      301.16302      210.76285      140615.51      0.92245398    -7796.3355      495.87785      7924.4328    
    876000   9007.1212     -7530.8109      1857.3362     -6146.4852      4340.6764      3055.7687      971.85642      1689.1044      10769.675     -1762.554       301.10866      586.99915      140676.47      0.92205426    -7793.0829      496.3984       7942.3818    
    878000   8937.6247     -7548.5813      1859.279      -6144.1084      4328.9491      3008.7059      966.56725      1674.6608      10792.152     -1854.5276      301.7371       364.19958      140682.68      0.92201353    -7806.2752      496.57408      7960.6488    
    880000   9096.565      -7536.6323      1870.4164     -6146.597       4414.3015      3075.1452      981.64605      1684.4131      10753.872     -1657.3071      300.66682      804.57864      140859.77      0.92085437    -7779.9078      496.08746      7978.6627    
    882000   9020.5156     -7558.8232      1861.7439     -6144.7925      4401.2355      2996.407       1005.4769      1716.7301      10742.538     -1722.0223      300.34993      0.92731053     140274.86      0.9246941     -7811.017       495.6706       7996.6112    
    884000   8803.3283     -7554.5388      1863.5896     -6144.0085      4448.5561      3036.5765      946.98943      1675.8609      10530.303     -1726.9748      294.41607      799.0968       141077.76      0.91943148    -7802.376       499.65177      8014.612     
    886000   9037.1756     -7590.0487      1873.3521     -6145.66        4434.1992      3131.9266      950.65717      1665.5279      10717.221     -1680.0457      299.64211      331.64374      140321.14      0.92438916    -7832.0347      497.15246      8032.7128    
    888000   8888.8024     -7563.0031      1855.3744     -6144.4902      4344.2524      3085.7636      937.72745      1659.2183      10713.959     -1825.1571      299.55091      622.10775      140627.5       0.92237533    -7823.859       499.6106       8050.8085    
    890000   9036.9619     -7577.2569      1849.3107     -6145.4107      4356.5922      3063.1859      952.19468      1644.7831      10893.563     -1856.601       304.57243      458.09886      140339.29      0.92426958    -7848.5809      499.67152      8069.0723    
    892000   9004.2118     -7546.7436      1854.4287     -6145.3902      4508.2023      3069.3408      976.26605      1683.6915      10604.416     -1600.2045      296.4882       289.63374      140603.07      0.92253561    -7807.0158      500.50617      8087.4003    
    894000   8969.8159     -7557.8063      1858.6766     -6144.3309      4483.0025      2990.3865      925.72156      1658.172       10755.994     -1786.178       300.72615      734.86216      141169.33      0.91883509    -7813.6623      502.92916      8105.6944    
    896000   8937.9678     -7557.5598      1827.2817     -6145.5916      4423.9771      3089.42        915.05817      1730.1761      10655.206     -1717.2384      297.90823     -1072.0937      139694.34      0.92853679    -7845.9507      500.39869      8123.8729    
    898000   8983.3271     -7561.4642      1867.2332     -6143.4225      4310.8649      3007.7949      890.42913      1705.1417      10906.75      -1923.4228      304.94113     -1.0328923      140720.63      0.92176488    -7808.7364      503.05917      8142.2013    
    900000   8994.257      -7517.5854      1873.4587     -6145.6282      4342.7463      3073.1097      939.43466      1702.9471      10725.774     -1731.5173      299.88124     -120.27406      141709.08      0.9153354     -7759.483       505.7801       8160.4453    
    902000   8931.5517     -7529.9412      1880.6288     -6143.7705      4339.6967      2999.344       931.22621      1649.8935      10804.474     -1872.9225      302.08161     -175.4473       141024.91      0.91977609    -7767.9543      506.97041      8178.6105    
    904000   9028.9928     -7454.7734      1873.2342     -6142.5419      4344.8667      3033.873       937.85319      1696.1735      10740.308     -1711.3148      300.28758      74.026595      142662.22      0.90921997    -7695.6209      510.04595      8196.6963    
    906000   9175.5764     -7620.7483      1880.5282     -6142.5257      4410.5528      3062.0394      990.84309      1700.7225      10894.164     -1718.588       304.58925      224.89397      140252.49      0.92484162    -7856.4799      504.73266      8214.7406    
    908000   9014.7707     -7543.1267      1867.4101     -6144.2525      4394.1812      3033.5225      935.00407      1672.8478      10799.184     -1784.4136      301.93371     -574.29545      141169.37      0.91883484    -7796.1088      511.13261      8232.8367    
    910000   8823.139      -7573.9501      1865.4232     -6144.1255      4317.277       3003.5534      966.86318      1740.3229      10647.775     -1824.6359      297.70046     -114.21997      140748.65      0.92158137    -7823.971       510.9132       8250.8009    
    912000   9115.0215     -7592.677       1848.7773     -6145.7468      4509.9698      3019.6337      955.76265      1668.5214      10850.78      -1735.759       303.37628      681.02348      140041.94      0.92623205    -7862.6386      508.83061      8268.7881    
    914000   9066.9555     -7585.1672      1864.0034     -6144.6355      4320.7469      3073.4142      981.00413      1685.3159      10872.274     -1805.3181      303.97721      461.54817      140479.79      0.92334519    -7840.7842      510.60523      8286.7495    
    916000   9063.5934     -7574.8719      1870.0104     -6144.1235      4368.3876      3057.4209      946.46911      1652.1172      10888.184     -1824.5901      304.42203      178.11163      140821.59      0.92110405    -7823.8705      512.59316      8304.8195    
    918000   9117.3953     -7437.1242      1877.9813     -6143.5395      4428.6405      3043.1109      954.35263      1688.0303      10705.943     -1588.548       299.32679     -543.03906      141913.38      0.9140177     -7670.7639      514.4441       8323.0444    
    920000   9044.7852     -7513.7399      1833.9994     -6144.3855      4381.3737      3059.6212      945.33199      1672.8141      10809.77      -1764.985       302.22968     -502.48048      141117.09      0.91917528    -7796.6926      512.32488      8341.2845    
    922000   8891.9686     -7576.3911      1864.7643     -6145.2348      4275.8325      3029.9381      946.3999       1694.152       10802.508     -1910.5393      302.02663      450.40615      141259.97      0.91824553    -7827.6276      513.74291      8359.4785    
    924000   9069.3353     -7512.4135      1851.1508     -6144.3048      4320.8996      3082.2073      937.07557      1676.9557      10857.764     -1788.4292      303.57155     -150.86856      140759.37      0.92151119    -7777.4675      514.46708      8377.8191    
    926000   9031.937      -7483.1625      1869.6275     -6145.515       4368.7077      3049.0578      980.41769      1694.2084      10698.595     -1666.6584      299.12135     -322.55145      141732.69      0.91518294    -7727.5349      517.68702      8396.0034    
    928000   8937.794      -7620.2731      1870.1361     -6144.4593      4424.4322      3086.3683      945.80889      1691.6294      10684.152     -1746.3576      298.71751      226.80201      139671.61      0.92868795    -7867.4556      514.7884       8414.2463    
    930000   9105.5222     -7556.6253      1872.6008     -6144.6376      4405.8408      3050.1164      995.00634      1702.5225      10780.698     -1675.1761      301.41686      269.32191      140779.39      0.92138019    -7798.3676      519.43332      8432.3984    
    932000   9112.1027     -7512.2529      1887.0467     -6144.724       4542.4852      3016.8939      963.27132      1638.8388      10720.544     -1608.441       299.735       -235.71639      141174.4       0.91880212    -7740.467       520.8667       8450.4783    
    934000   8913.0119     -7451.137       1858.1578     -6145.4978      4321.5242      2988.8354      903.13218      1646.3688      10791.628     -1878.6164      301.72245      398.24685      141525.78      0.91652091    -7711.4483      522.66904      8468.4349    
    936000   8762.1265     -7594.1614      1837.0277     -6144.598       4318.1812      3019.5557      969.8819       1699.2537      10656.986     -1894.8593      297.95799      51.858081      140445.66      0.92356954    -7872.7722      519.93363      8486.3799    
    938000   8989.5814     -7550.6         1888.4133     -6144.9109      4344.0356      3036.9279      988.47841      1629.0013      10798.236     -1808.6544      301.90719      430.64656      141176.73      0.91878694    -7781.8614      524.39601      8504.3861    
    940000   9220.5453     -7570.5926      1875.1276     -6144.7646      4409.5419      3066.9965      995.71613      1713.3712      10875.149     -1654.6038      304.0576      -368.72517      140560.11      0.92281758    -7809.1472      525.29691      8522.4767    
    942000   8800.776      -7545.9049      1887.6724     -6145.0888      4252.7705      2995.8908      922.98641      1687.9561      10744.494     -1943.7176      300.40461     -161.5253       140904.62      0.92056125    -7775.0936      526.69826      8540.5593    
    944000   9194.0917     -7478.7779      1863.622      -6146.2486      4434.5412      3034.7869      952.87246      1691.6728      10841.623     -1647.5311      303.12024     -217.49683      141359.31      0.91760025    -7727.8291      529.87242      8558.6231    
    946000   9002.3196     -7548.0988      1858.5343     -6144.0483      4394.7579      3066.0115      946.47899      1694.58        10734.104     -1731.7845      300.11413      634.77442      140394.19      0.92390817    -7800.7802      530.85182      8576.603     
    948000   9018.1389     -7510.86        1868.8356     -6144.2124      4464.6759      2997.5039      990.06532      1715.9032      10636.227     -1618.0884      297.3776      -557.69064      141733.16      0.91517991    -7753.6738      533.43781      8594.7158    
    950000   8995.9323     -7495.7164      1875.3632     -6143.8276      4346.8146      3027.489       962.53938      1710.5468      10712.723     -1716.791       299.51635     -670.61148      141794.2       0.91478591    -7734.7154      537.20432      8612.7292    
    952000   8860.8312     -7541.1443      1860.6779     -6146.1968      4375.4544      3044.4179      956.38119      1673.2408      10638         -1777.169       297.42717      703.96152      140666.13      0.92212204    -7795.9766      535.54313      8630.7729    
    954000   9232.609      -7598.4787      1878.0931     -6144.5254      4542.1522      3086.8311      915.75588      1712.5216      10840.259     -1607.6501      303.08211     -323.16433      140353.36      0.92417691    -7834.7814      536.14456      8648.7305    
    956000   8976.7364     -7559.656       1845.8637     -6145.2183      4347.8839      3027.5914      1004.8247      1708.9001      10746.547     -1769.8105      300.46202     -240.39811      140219.3       0.92506048    -7830.1118      537.76549      8666.8754    
    958000   9110.6354     -7459.6951      1859.994      -6144.4529      4376.568       3017.3674      940.83316      1760.5057      10759.515     -1648.8797      300.8246      -502.0854       141828.41      0.91456526    -7720.4548      541.60312      8684.9264    
    960000   8779.0819     -7529.6354      1842.9417     -6144.2324      4308.3732      2951.9859      903.86439      1691.4094      10754.375     -1975.2932      300.68089     -140.91042      141112.67      0.91920406    -7801.2007      540.21416      8703.1192    
    962000   8782.7995     -7588.1617      1840.1343     -6147.157       4296.0995      3034.5078      942.56854      1699.5739      10705.234     -1922.4347      299.30696      153.68291      140127.03      0.92566965    -7866.6614      539.16775      8721.2969    
    964000   8736.0015     -7575.8022      1830.4831     -6146.4108      4341.1955      3082.8766      946.50672      1634.8603      10622.292     -1886.2908      296.98799      406.23043      140657.44      0.92217901    -7864.2734      542.80051      8739.5833    
    966000   8791.7259     -7596.6949      1861.4254     -6145.0871      4293.4938      3025.373       921.24295      1668.2129      10763.76      -1972.034       300.94328      605.04727      140252.04      0.9248446     -7848.7742      541.63052      8758.0664    
    968000   8949.2451     -7518.316       1857.3806     -6145.3995      4478.5935      3016.1719      922.07373      1664.0257      10674.715     -1725.47        298.45368     -515.26148      140671.18      0.92208896    -7777.5983      544.17484      8776.3161    
    970000   9049.3705     -7508.1573      1854.6958     -6146.0931      4386.5133      3062.4422      976.8762       1676.6654      10746.428     -1697.0576      300.4587      -285.42628      141310.21      0.91791907    -7771.3368      547.17916      8794.6068    
    972000   8895.17       -7564.3866      1848.3828     -6144.2706      4371.5407      3039.3107      937.54503      1719.8612      10687.187     -1792.0167      298.80237      322.29317      140704.99      0.92186739    -7831.0488      544.26444      8812.8849    
    974000   9037.8016     -7496.6793      1841.3438     -6142.5651      4431.2666      3043.8405      935.21768      1701.9619      10723.416     -1685.614       299.81529      102.20895      140993.82      0.91997888    -7767.2603      546.5786       8831.1306    
    976000   9075.8813     -7521.3832      1865.3297     -6144.5271      4349.5445      3076.2308      969.75808      1651.4873      10829.441     -1753.5599      302.77966      109.91479      140479.67      0.92334598    -7776.2634      546.34517      8849.2652    
    978000   9137.2108     -7446.0976      1913.7357     -6143.638       4362.4627      2995.4583      937.97733      1711.6567      10805.656     -1668.4449      302.11464      137.51029      141709.44      0.91533307    -7647.315       549.29636      8867.3505    
    980000   9022.1905     -7447.4049      1852.5582     -6145.2281      4414.7621      3001.2         985.1375       1697.6003      10663.565     -1641.3749      298.14195      232.78311      142172.35      0.9123528     -7707.8509      554.28326      8885.4538    
    982000   8842.2007     -7512.356       1875.2025     -6143.4658      4346.5497      3011.1324      951.33958      1685.5531      10628.245     -1786.0445      297.15443     -175.10332      141931.73      0.91389951    -7750.7663      557.85989      8903.3883    
    984000   8893.8931     -7573.5281      1873.4473     -6143.838       4378.8666      3026.853       974.25002      1668.8047      10689.038     -1795.1444      298.85412      4.9423666      140626.46      0.92238216    -7812.3314      554.6549       8921.4985    
    986000   8662.5949     -7633.6994      1850.02       -6142.8147      4202.681       2985.8084      952.46628      1725.191       10722.942     -2060.3473      299.80206      650.9446       139581.23      0.92928923    -7894.8631      552.40886      8939.6445    
    988000   8796.8954     -7549.704       1866.0755     -6143.5354      4277.049       3006.3252      925.24158      1708.6899      10706.754     -1909.8582      299.34944      385.18812      140393.97      0.92390958    -7795.9838      554.22968      8957.9074    
    990000   8979.8744     -7525.8485      1878.9571     -6144.7577      4367.1377      3000.5468      936.45003      1751.1176      10716.271     -1736.3969      299.61555     -1071.0649      141826.7       0.91457632    -7763.4771      557.98454      8976.0444    
    992000   9030.7994     -7540.7345      1880.4128     -6144.8445      4406.9378      2988.2349      952.38603      1673.0835      10815.323     -1784.5239      302.38493      830.89315      141038.48      0.91968755    -7774.7974      556.39219      8994.2458    
    994000   8911.6738     -7512.9428      1837.0213     -6145.1906      4343.7483      3038.0738      961.70967      1673.9406      10715.313     -1803.6397      299.58877     -343.30071      141389.58      0.9174038     -7797.9859      559.08722      9012.339     
    996000   8923.6535     -7559.119       1833.3426     -6144.5436      4444.0161      3017.3802      947.55456      1734.226       10650.797     -1727.1433      297.78495     -199.7639       140844.86      0.92095186    -7847.0068      559.44031      9030.6173    
    998000   8758.5166     -7525.2734      1883.3481     -6144.4028      4249.9007      3090.1493      930.31935      1639.56        10634.915     -1876.3987      297.34092     -334.89188      140927.1       0.92041441    -7759.8715      564.02347      9048.7094    
   1000000   9044.2012     -7562.1718      1843.2926     -6143.2554      4464.1377      3034.7787      961.21802      1695.6999      10750.502     -1706.3004      300.57259      848.03405      140192.27      0.92523886    -7833.5283      562.49781      9066.9503    
   1002000   8718.1738     -7568.2148      1864.7262     -6145.0307      4359.1763      3001.9933      934.85449      1644.9518      10625.717     -1907.5434      297.08375      233.85746      141049.07      0.91961852    -7823.5652      565.01659      9085.2463    
   1004000   8833.9538     -7609.6425      1827.7858     -6144.3726      4297.9009      3071.6754      952.18368      1711.1106      10727.313     -1893.3588      299.92425      267.57224      140131.63      0.92563926    -7896.8114      562.85986      9103.4449    
   1006000   9012.3387     -7598.4008      1856.5461     -6143.5986      4391.9796      3071.0217      897.85744      1700.0955      10836.838     -1824.499       302.98646      109.32468      139973.13      0.92668739    -7856.388       566.968        9121.6175    
   1008000   8955.4194     -7591.5565      1879.3934     -6142.3751      4426.1566      3073.4824      931.91104      1707.4481      10670.959     -1715.54        298.34867     -609.63211      140148.71      0.92552647    -7829.7068      569.38646      9139.9119    
   1010000   8906.7247     -7559.0326      1887.5082     -6143.8816      4389.6616      3000.7414      948.0996       1679.752       10703.876     -1797.1514      299.26899      295.23388      140443.17      0.92358597    -7787.7799      572.62973      9158.2739    
   1012000   8867.506      -7596.4163      1840.4633     -6144.5991      4403.7258      3109.8309      935.51026      1659.6087      10659.382     -1791.8765      298.025        318.06866      139867.06      0.92739019    -7879.2967      571.83738      9176.6711    
   1014000   8889.9842     -7548.4078      1876.622      -6146.1069      4380.9394      2989.6909      936.87373      1708.5557      10691.817     -1801.833       298.93184      307.82328      140915.58      0.92048966    -7788.6663      575.37983      9194.9888    
   1016000   9037.4208     -7506.2227      1860.2864     -6144.8351      4460.4492      3097.4461      929.93772      1630.5792      10709.78      -1672.3592      299.43406     -49.41531       141421.44      0.91719711    -7759.5893      577.35088      9213.1853    
   1018000   8923.9035     -7587.9085      1854.0187     -6144.7234      4373.8361      3111.9495      972.50626      1678.9706      10665.254     -1741.3507      298.18916     -99.138945      139915.34      0.92707015    -7852.9486      576.04825      9231.5051    
   1020000   8964.1246     -7489.7061      1906.6876     -6144.7566      4301.2575      3037.7779      943.26232      1732.8899      10676.712     -1712.5874      298.50951     -109.21988      142035.37      0.91323265    -7700.0822      582.5022       9249.8213    
   1022000   8954.2758     -7588.0261      1867.9862     -6144.8112      4432.843       3080.5387      990.39992      1714.2762      10601.069     -1646.7933      296.39462     -1164.7302      140724.87      0.92173713    -7832.4058      580.77669      9267.9124    
   1024000   8942.95       -7481.6488      1880.4572     -6141.4478      4302.3927      3031.9817      905.25702      1695.6126      10750.345     -1807.3955      300.56822      817.94902      141652.81      0.91569901    -7714.9884      585.94506      9286.0351    
   1026000   9020.1844     -7487.7114      1836.4699     -6143.444       4458.4719      3002.5406      972.25804      1676.2001      10705.399     -1685.2148      299.31158      395.94562      141130.2       0.91908988    -7765.2052      587.43094      9304.1663    
   1028000   9145.2155     -7509.2846      1884.3965     -6146.401       4408.2014      3100.6591      939.9963       1736.6655      10730.982     -1585.7668      300.02685     -27.928989      140801.69      0.92123426    -7744.1628      587.87422      9322.1814    
   1030000   9158.5879     -7481.2168      1896.3782     -6143.9197      4399.9143      3037.5774      972.31865      1729.4946      10748.041     -1589.4534      300.5038       622.64634      142166.72      0.91238889    -7698.1152      591.94399      9339.9752    
   1032000   9194.9414     -7466.6349      1866.3497     -6145.4446      4276.6752      3067.0024      1014.9847      1744.3861      10837.623     -1642.6814      303.00841     -790.35514      141934.84      0.91387945    -7718.2717      595.58986      9357.8603    
   1034000   8979.4092     -7519.6605      1852.8561     -6144.9952      4422.0088      3095.1208      928.1793       1634.7635      10711.136     -1731.7272      299.47198      440.44158      140937.88      0.92034403    -7780.3398      592.90592      9375.6449    
   1036000   8921.0517     -7592.7691      1840.1677     -6143.6161      4319.3544      3073.0573      973.61151      1678.559       10772.687     -1851.6352      301.19286      260.87617      140324.11      0.92436954    -7868.6235      594.10742      9393.5818    
   1038000   8775.7845     -7558.384       1843.2082     -6145.3314      4317.0509      2992.3509      952.87306      1727.5563      10646.461     -1870.6761      297.66371     -23.657374      141030.86      0.91973726    -7832.957       594.75598      9411.5101    
   1040000   8854.3961     -7586.6852      1855.2219     -6144.3978      4420.9558      3058.1485      967.3313       1684.7526      10599.069     -1744.6729      296.3387      -3.0145195      140697.18      0.92191855    -7851.9236      596.67259      9429.3859    
   1042000   8978.8466     -7532.1041      1888.8741     -6144.0255      4326.7644      3025.7732      973.41626      1676.9795      10763.169     -1784.3222      300.92675      333.51442      141751.99      0.91505834    -7756.1351      598.56233      9447.2418    
   1044000   8905.4201     -7555.8571      1838.7009     -6145.3722      4350.8142      3041.4818      974.09264      1672.0384      10729.521     -1824.1014      299.98601     -566.25144      140283.94      0.92463426    -7838.702       594.97429      9465.0641    
   1046000   9024.2612     -7546.0776      1861.943      -6145.2061      4463.1701      3054.7056      924.98328      1672.9148      10737.828     -1713.5668      300.21825     -395.07855      141313.93      0.9178949     -7802.698       600.03868      9482.9342    
   1048000   9109.0909     -7553.6538      1830.1532     -6143.9908      4420.7782      3100.3194      929.36352      1705.9491      10820.172     -1711.0813      302.5205      -87.270771      140800.11      0.92124459    -7842.8495      597.13809      9501.0302    
   1050000   8999.1669     -7585.3405      1825.2132     -6143.9558      4429.3307      3065.7144      973.53762      1662.1551      10772.512     -1773.3453      301.18798     -340.80194      140108.77      0.92579028    -7875.5252      598.85656      9519.2007    
   1052000   8846.1367     -7570.6765      1845.2959     -6145.3126      4386.3134      2958.8253      946.57478      1639.2874      10785.829     -1939.6924      301.56031     -406.60898      139987.78      0.9265904     -7838.187       599.79643      9537.1964    
   1054000   9175.9875     -7510.5918      1853.9331     -6145.0525      4416.7976      3128.7034      982.68533      1702.7319      10746.78      -1570.793       300.46855      97.722161      140971.59      0.92012398    -7774.8119      605.0663       9555.3394    
   1056000   8874.5318     -7510.4056      1847.8518     -6144.4405      4353.868       3013.2438      914.35046      1673.1638      10726.9       -1852.3682      299.91271      378.68019      141762.01      0.91499363    -7775.5583      607.02707      9573.524     
   1058000   9211.1626     -7472.5375      1869.6135     -6144.878       4481.7246      3019.3364      942.97246      1621.7815      10893.15      -1681.987       304.56088      118.25599      142165.82      0.91239469    -7718.9862      606.6254       9591.6097    
   1060000   9020.6328     -7512.036       1867.8573     -6144.9563      4342.0955      3084.6443      968.93516      1663.9643      10750.128     -1729.4956      300.56215     -1135.1489      141066.24      0.91950661    -7763.3062      606.09881      9609.8563    
   1062000   8987.6913     -7534.4767      1875.9204     -6145.2727      4353.6317      3092.999       928.61925      1672.8149      10743.455     -1755.7642      300.37559     -1159.6813      141274.49      0.91815114    -7777.7964      607.85478      9628.0004    
   1064000   8903.3952     -7585.9597      1846.0407     -6144.9458      4375.7318      3047.7896      926.58376      1682.1049      10756.05      -1852.6548      300.72772      42.675538      140245.14      0.92489005    -7858.5962      607.08066      9646.2465    
   1066000   8919.5859     -7606.749       1861.1492     -6143.6025      4393.6538      3082.905       916.8364       1652.2798      10763.113     -1843.5272      300.92519     -581.16883      140689.17      0.921971      -7863.1232      610.16116      9664.7313    
   1068000   9019.2412     -7572.7866      1862.2117     -6145.045       4401.5972      3047.9156      981.94903      1694.8761      10748.523     -1729.282       300.51727      85.958221      140625.56      0.92238804    -7826.3107      609.19953      9683.2318    
   1070000   8952.9827     -7547.2585      1851.6682     -6145.9025      4375.6951      3011.2157      973.33943      1703.8046      10730.421     -1777.438       300.01115      231.01103      140859.65      0.92085518    -7815.3572      610.45275      9701.5384    
   1072000   9055.3885     -7502.6349      1840.9736     -6145.7309      4380.7746      3024.2626      921.1543       1707.0088      10829.58      -1774.1919      302.78355     -198.30093      141211.56      0.91856031    -7779.6347      613.08953      9719.8781    
   1074000   8942.3181     -7537.7861      1884.9274     -6144.4585      4375.8581      3075.4125      935.06714      1662.5403      10690.757     -1748.439       298.9022      -747.74932      141461.72      0.91693597    -7776.0968      615.61726      9738.1779    
   1076000   9021.0113     -7574.8541      1844.4509     -6145.2059      4344.6318      3063.1269      942.81842      1708.2348      10837.809     -1816.7972      303.0136      -75.991065      141150.93      0.91895487    -7852.3846      616.336        9756.48      
   1078000   9130.951      -7505.8567      1869.9639     -6145.0942      4353.084       3094.9686      955.21875      1690.5819      10818.085     -1687.1337      302.46214      226.23159      141210.97      0.91856414    -7753.0769      616.23402      9774.8642    
   1080000   9142.8295     -7536.6331      1872.3807     -6145.2957      4335.6566      3122.4793      972.34952      1674.8773      10847.015     -1704.1854      303.271       -389.92062      141311.68      0.91790955    -7783.5734      618.44305      9793.3449    
   1082000   8971.8789     -7518.3433      1868.781      -6144.8095      4427.531       3029.9455      962.88375      1679.6022      10666.288     -1694.4094      298.21807     -99.114095      141075.2       0.91944821    -7770.6096      618.62859      9811.6331    
   1084000   8923.9071     -7498.571       1873.4604     -6146.1097      4414.9333      3061.0085      947.57013      1665.6512      10605.964     -1682.0573      296.53148      20.047575      141240.79      0.91837026    -7743.7293      621.59942      9830.1971    
   1086000   8990.4958     -7521.8546      1845.0964     -6145.979       4396.0299      3007.66        971.78248      1639.4409      10798.32      -1807.8238      301.90953     -169.53045      141159.97      0.91889602    -7793.7737      620.23356      9848.4827    
   1088000   8791.2452     -7572.8228      1829.3233     -6145.7388      4306.8661      3019.8346      935.09442      1651.3808      10767.308     -1976.0625      301.04247      740.55851      139826.14      0.92766156    -7859.6917      618.18186      9866.7817    
   1090000   8751.2088     -7568.6228      1861.2813     -6145.7972      4319.8438      2978.9921      977.94343      1682.5226      10645.046     -1893.8368      297.62415     -371.38096      140444.93      0.92357437    -7823.1228      618.84348      9885.1028    
   1092000   9111.4227     -7533.7019      1852.4621     -6145.3067      4374.1866      3078.5969      951.2754       1729.6309      10804.279     -1692.8568      302.07616      779.46951      140783.11      0.92135582    -7798.3904      619.39597      9903.3256    
   1094000   8942.0514     -7583.7011      1830.0332     -6144.293       4317.6877      3066.519       921.03358      1756.4256      10778.346     -1836.295       301.3511       40.49172       140362.93      0.92411391    -7871.7163      620.88907      9921.4806    
   1096000   8958.735      -7577.3422      1887.5235     -6142.5607      4421.9711      3043.4009      940.16405      1685.0928      10700.486     -1741.7506      299.17419     -139.44001      140523.63      0.92305715    -7804.1817      621.38494      9939.7067    
   1098000   8902.2286     -7537.0498      1863.7614     -6145.9456      4369.3971      2964.2697      921.51388      1688.4653      10777.817     -1875.5881      301.33629     -212.29271      140749.91      0.92157318    -7788.0585      623.13748      9957.923     
   1100000   9174.8211     -7482.1529      1849.3817     -6144.4926      4422.7793      3061.8891      983.6338       1674.2607      10809.522     -1634.7009      302.22274     -334.39703      141898.44      0.9141139     -7746.1758      626.40205      9975.9681    
   1102000   8885.7717     -7541.3485      1854.0045     -6143.1433      4390.1869      2996.2069      910.89624      1708.9972      10709.972     -1824.2001      299.43942     -784.44202      141063.52      0.91952434    -7807.2195      627.14926      9994.0651    
   1104000   8812.1476     -7632.9149      1836.8108     -6144.3554      4331.8186      3027.5818      928.44129      1680.5629      10784.203     -1972.055       301.51483     -672.28929      139732.94      0.92828028    -7912.4753      625.98155      10012.288    
   1106000   8844.3999     -7555.9988      1869.0858     -6144.2322      4341.824       2981.0978      970.06553      1646.3113      10736.246     -1891.8465      300.17403      145.68621      140478.82      0.92335156    -7802.0886      626.2225       10030.346    
   1108000   8885.7899     -7663.2571      1810.1213     -6145.3837      4432.6855      3062.2371      971.34115      1655.5187      10762.527     -1876.7371      300.90881     -1065.2413      139174.88      0.93200252    -7974.8982      624.38165      10048.621    
   1110000   8859.4196     -7554.8804      1838.876      -6146.5845      4404.8381      2996.0656      1009.1691      1675.2888      10636.647     -1777.2274      297.38933      173.44927      140732.3       0.92168844    -7831.5179      627.70103      10066.915    
   1112000   8954.883      -7518.8772      1835.5815     -6145.0041      4352.471       3034.6032      928.50339      1685.847       10781.758     -1826.8752      301.44649     -18.711981      141313.46      0.91789797    -7799.1658      630.70045      10085.007    
   1114000   8864.4054     -7579.9103      1843.4377     -6144.5678      4342.0258      3039.3536      973.54021      1640.1968      10750.329     -1885.9239      300.56777      418.6042       140219.31      0.92506048    -7856.5381      629.86277      10103.167    
   1116000   8729.1791     -7621.0153      1844.8111     -6144.6303      4309.4389      3026.9022      952.66039      1640.6023      10720.41      -1991.2309      299.73126     -683.54201      139659.41      0.92876907    -7896.886       630.56314      10121.084    
   1118000   8808.3688     -7522.8933      1858.2211     -6144.2034      4306.1834      3022.2386      902.17949      1701.9068      10684.736     -1876.3672      298.73385      653.3659       141299.61      0.91798794    -7783.8074      634.45017      10139.083    
   1120000   8789.0552     -7566.9571      1864.527      -6144.3629      4323.1929      3087.5495      944.12848      1650.196       10630.781     -1841.7262      297.22534     -208.27886      140751.58      0.92156223    -7820.8205      633.31472      10157.062    
   1122000   9058.3779     -7592.6459      1843.55       -6144.6342      4326.4518      3176.3643      990.0961       1656.7317      10802.464     -1744.0863      302.02541      397.02933      140411.98      0.92379109    -7865.148       632.00274      10175.105    
   1124000   8883.7938     -7553.5057      1839.2218     -6142.9284      4440.9808      2997.9774      946.50046      1655.1504      10700.397     -1816.6032      299.17172     -951.93463      140622.26      0.92240969    -7827.9265      636.1972       10193.234    
   1126000   8877.8786     -7554.1059      1875.2383     -6144.4715      4431.9984      3023.308       927.81627      1657.803       10660.292     -1782.4133      298.05042      1030.434       140765.39      0.92147179    -7799.5285      638.01032      10211.114    
   1128000   9006.4838     -7525.8545      1862.0508     -6145.6751      4389.544       3030.9053      960.33622      1698.12        10737.057     -1730.5733      300.1967      -133.32091      140389.47      0.92393922    -7775.8435      638.68964      10229.24     
   1130000   8947.7381     -7580.0324      1847.679      -6144.8343      4440.743       3016.9882      944.06579      1670.4693      10752.659     -1804.9214      300.63292      412.47856      140872.7       0.9207699     -7845.7801      643.47952      10247.654    
   1132000   8898.9709     -7578.6791      1855.2527     -6143.726       4386.9872      3093.825       957.02692      1661.9789      10666.305     -1767.3343      298.21855     -8.6131761      139458.24      0.93010881    -7839.1032      638.29991      10265.941    
   1134000   8886.4111     -7551.4687      1875.8609     -6145.7027      4348.7345      3020.3825      943.26334      1688.7283      10706.613     -1820.2019      299.34551     -322.81346      140513.37      0.9231245     -7793.1872      643.1656       10284.21     
   1136000   9073.3528     -7562.116       1875.6974     -6144.4788      4455.1869      3040.2134      971.39869      1676.7443      10760.707     -1687.3541      300.85792     -147.08149      140588.99      0.92262798    -7799.2594      645.4563       10302.444    
   1138000   8793.852      -7470.339       1865.9339     -6145.4348      4376.5678      2989.9419      948.36926      1639.3679      10589.445     -1795.5929      296.06962     -305.07184      141678.47      0.91553315    -7719.5368      648.1117       10320.556    
   1140000   8829.8953     -7559.7192      1851.1479     -6144.19        4386.7855      3028.5758      907.45999      1688.7649      10671.07      -1841.1752      298.35178      292.79119      140681.8       0.92201932    -7822.4168      649.98102      10338.565    
   1142000   9053.3099     -7556.5584      1863.5893     -6145.379       4349.7893      3029.0395      977.24274      1702.9266      10832.66      -1779.3499      302.86965     -440.32442      141084.64      0.91938669    -7808.2832      649.02515      10356.815    
   1144000   9128.8382     -7481.6618      1863.3645     -6144.5179      4318.7743      3083.6418      920.8353       1689.3759      10879.026     -1750.1878      304.16599     -307.27423      141482.21      0.91680314    -7734.2977      651.89926      10375.03     
   1146000   9021.8586     -7549.3308      1863.3043     -6143.827       4379.8415      3088.2119      962.66523      1666.7109      10754.283     -1732.424       300.6783       1069.3087      140617.86      0.9224386     -7802.2227      650.06392      10393.192    
   1148000   9085.1985     -7565.5301      1877.7044     -6143.6773      4418.123       3046.3132      962.80072      1672.34        10817.125     -1731.9261      302.4353       251.91792      140159.5       0.92545522    -7808.0708      651.06329      10411.398    
   1150000   9029.1606     -7604.905       1850.3967     -6144.7406      4332.7212      3087.3299      969.20152      1731.389       10807.768     -1778.6073      302.17369      955.19919      139973.1       0.92668763    -7873.0448      653.83957      10429.719    
   1152000   8989.2422     -7517.9399      1864.6189     -6145.147       4333.8368      3036.3339      947.17151      1663.3494      10807.019     -1817.7764      302.15274      451.7289       141505.46      0.91665251    -7766.1117      659.8392       10447.942    
   1154000   8910.2423     -7499.4143      1858.0923     -6144.6069      4309.8376      3083.9139      935.09645      1663.1831      10704.14      -1793.8979      299.27638      808.36958      141694.93      0.9154268     -7759.5591      662.02864      10466.034    
   1156000   8882.8172     -7531.4126      1837.0885     -6144.1379      4363.0584      3036.9783      935.85519      1695.6614      10689.726     -1806.9087      298.87337     -1249.9235      140675.72      0.92205917    -7810.9928      660.99443      10484.282    
   1158000   9007.266      -7564.0979      1858.7933     -6146.2048      4352.5854      3082.5875      932.93085      1725.0677      10765.604     -1758.338       300.99484     -191.26158      141279.74      0.91811703    -7826.7449      663.91768      10502.571    
   1160000   9005.8517     -7590.8573      1863.0137     -6143.2797      4441.4067      3091.5463      942.05814      1684.8602      10717.104     -1711.2521      299.63882      107.60742      140818.24      0.92112595    -7842.4107      663.08791      10520.741    
   1162000   9161.8965     -7518.438       1856.2755     -6143.7274      4432.2219      3100.9035      927.72942      1733.4997      10773.432     -1611.5353      301.21369     -705.88709      141210.76      0.91856551    -7776.2842      663.13614      10539.082    
   1164000   9106.411      -7543.9077      1829.3906     -6143.9736      4471.0046      3122.8085      967.78461      1679.2986      10724.006     -1617.5945      299.83179     -240.75612      140789.57      0.92131357    -7831.248       664.73349      10557.303    
   1166000   9219.8817     -7445.3921      1863.259      -6143.842       4413.4176      3110.5132      952.51443      1697.1057      10772.306     -1552.4242      301.18221     -229.59254      142254.81      0.91182392    -7696.7375      671.94519      10575.459    
   1168000   9062.7328     -7503.6858      1878.2684     -6144.8021      4350.9995      3089.2852      952.7012       1677.9488      10762.018     -1699.2848      300.89457      785.74575      140970.26      0.92013267    -7741.792       668.08338      10593.68     
   1170000   8783.9879     -7582.8647      1883.3494     -6143.8372      4297.334       2983.6638      952.76469      1676.081       10717.497     -1933.509       299.64981      325.15724      140386.97      0.92395565    -7815.1198      667.88673      10611.95     
   1172000   9020.6442     -7532.0239      1863.7274     -6144.9424      4400.6499      3126.6917      927.69541      1650.0762      10728.77      -1708.1258      299.96499      91.310783      140955.01      0.92023219    -7788.8326      669.00109      10630.303    
   1174000   8855.6758     -7591.2822      1853.4548     -6143.2487      4331.963       3067.6025      949.77437      1670.4009      10717.011     -1861.3352      299.63623      36.88802       140290.94      0.92458816    -7855.6169      667.86247      10648.698    
   1176000   9013.0069     -7613.2021      1869.5817     -6145.3047      4401.0685      3056.4401      985.15672      1689.6626      10769.604     -1756.5971      301.10667      161.95016      139474.85      0.92999803    -7857.9917      664.86201      10667.035    
   1178000   8914.3714     -7633.0914      1855.8859     -6145.6532      4268.8746      3007.6583      967.79751      1740.3433      10852.556     -1938.1849      303.42593      311.08083      139439.88      0.93023127    -7894.5763      668.0701       10685.251    
   1180000   8809.5007     -7615.0213      1850.6491     -6144.5723      4300.3944      2944.4526      986.8251       1698.8549      10787.918     -1978.4175      301.61872     -238.26153      140023.4       0.92635472    -7877.0758      669.86889      10703.514    
   1182000   8786.7571     -7611.7549      1839.3649     -6143.9685      4343.8718      3077.3689      938.52358      1618.1406      10725.211     -1938.4535      299.86548      837.43868      139963.68      0.92675       -7888.6168      670.88995      10721.675    
   1184000   8768.7528     -7580.4678      1857.9784     -6144.8637      4377.3785      3018.5838      966.14778      1676.7253      10597.271     -1828.5178      296.28842     -387.77899      140220.2       0.9250546     -7837.3834      671.72147      10739.781    
   1186000   8889.8674     -7593.6779      1864.5704     -6144.0765      4335.1789      3028.1477      942.08785      1656.0356      10801.601     -1911.7339      302.00128      568.19768      140368.8       0.92407526    -7846.4766      672.65547      10757.927    
   1188000   9058.8091     -7528.1807      1890.3928     -6144.0324      4468.2319      3033.6197      955.13413      1692.6061      10691.038     -1632.2285      298.91004      242.18117      141635.6       0.91581026    -7749.143       681.10752      10775.838    
   1190000   8759.0388     -7554.1709      1881.9556     -6145.1358      4391.8211      3019.5967      911.91412      1664.0761      10588.982     -1829.9431      296.05667     -616.90764      140774.36      0.92141308    -7794.6487      678.72585      10793.899    
   1192000   8826.6577     -7552.2554      1869.6854     -6146.4077      4284.8863      3056.5059      974.93058      1663.9874      10675.325     -1848.6675      298.47074     -75.864224      140869.07      0.92079362    -7804.4936      679.97343      10811.773    
   1194000   9075.657      -7581.8232      1899.1777     -6143.9382      4458.2229      3045.9442      970.54798      1683.2663      10744.259     -1668.6024      300.39806      438.4816       139796.92      0.92785546    -7797.1223      681.22482      10829.599    
   1196000   9108.512      -7589.4527      1853.1988     -6144.3246      4363.0761      3109.4605      967.00103      1689.8528      10859.7       -1751.188       303.62566      461.88536      140126.06      0.92567605    -7853.8123      681.72804      10847.262    
   1198000   9124.1931     -7529.25        1857.2498     -6145.7046      4374.459       3076.0334      918.33781      1742.6119      10830.456     -1706.2627      302.80802      33.81286       141461.46      0.91693765    -7791.5817      689.01648      10865.005    
   1200000   9010.6492     -7493.437       1838.0171     -6144.8481      4405.8525      2997.5876      936.50011      1668.9681      10802.009     -1791.3597      302.01268      535.01384      141411.59      0.91726101    -7769.6804      688.74083      10882.534    
   1202000   8970.2701     -7557.8329      1854.8016     -6145.4508      4417.7891      3088.1724      939.00784      1661.4954      10712.288     -1742.0175      299.50417      202.69381      140845.26      0.92094927    -7821.7564      687.31747      10900.129    
   1204000   9027.6672     -7528.5269      1878.026      -6144.1055      4341.0847      3041.2053      958.76849      1683.0138      10798.201     -1770.534       301.90622     -1023.8929      141273.27      0.91815911    -7766.0082      687.65013      10917.747    
   1206000   8868.522      -7535.0671      1864.8943     -6145.336       4310.8826      3051.8118      930.04039      1670.3713      10720.925     -1852.4026      299.74565      496.09477      140696.2       0.92192498    -7787.4113      688.02046      10935.71     
   1208000   9291.4166     -7486.7155      1887.7436     -6145.4579      4469.9471      3061.9052      932.89525      1684.3318      10886.767     -1595.3506      304.38243     -131.96141      141137.53      0.91904214    -7720.2804      691.89965      10953.751    
   1210000   8956.6647     -7556.9243      1875.4462     -6144.1827      4297.3511      3066.2858      963.13349      1699.4332      10756.122     -1799.4571      300.72972      468.50467      141267.58      0.91819606    -7796.17        692.20267      10971.924    
   1212000   9088.3505     -7523.1078      1880.1089     -6144.4242      4351.422       3131.6031      957.89908      1683.972       10750.877     -1662.5269      300.5831      -221.49874      141775.73      0.91490512    -7761.3835      697.23054      10989.887    
   1214000   9271.1398     -7463.6885      1878.5401     -6144.6135      4389.1081      2992.8756      943.32087      1782.8168      10892.78      -1621.6406      304.55055     -868.41547      141846.05      0.91445151    -7704.8271      696.93637      11008.155    
   1216000   9025.7283     -7537.0799      1869.5587     -6145.3143      4426.8588      3077.6671      923.90726      1656.3727      10753.758     -1728.0297      300.66363     -196.35136      140895.94      0.920618      -7782.8801      698.16441      11026.39     
   1218000   9255.274      -7535.7256      1874.8476     -6144.0911      4424.0074      3052.6998      980.75502      1729.8524      10872.929     -1617.6545      303.99552      166.20416      141137.11      0.91904489    -7773.6382      699.57552      11044.605    
   1220000   9002.0543     -7488.6481      1868.0958     -6143.68        4484.6183      3013.1242      941.99272      1672.0607      10654.491     -1652.4363      297.88822     -758.44997      141271.63      0.91816975    -7738.3877      704.93311      11062.76     
   1222000   8945.5446     -7504.3884      1866.6854     -6144.7025      4352.5664      3086.9939      1024.5365      1698.1792      10565.674     -1620.1296      295.40501      547.05043      141195.37      0.91866563    -7752.6763      707.39148      11080.926    
   1224000   8839.8266     -7558.9157      1838.609      -6145.8536      4342.4436      2955.2446      925.88347      1684.9906      10797.425     -1957.598       301.88451     -398.80226      140533.05      0.92299523    -7837.5359      704.57668      11099.113    
   1226000   9080.8942     -7547.8015      1866.112      -6145.5401      4426.2862      3072.2638      972.10665      1649.12        10788.347     -1707.453       301.63071     -440.33571      140849.13      0.92092392    -7804.2003      707.34237      11117.256    
   1228000   9177.178      -7527.3176      1861.2828     -6145.672       4398.2888      3091.3693      954.81334      1721.2674      10823.146     -1645.968       302.60365     -518.46413      140955.03      0.92023205    -7788.5047      710.28533      11135.457    
   1230000   8884.2087     -7568.1401      1829.3037     -6145.6166      4437.6148      3033.6983      929.01332      1709.8392      10658.496     -1774.2875      298.00022      751.8052       140128.82      0.92565779    -7856.263       709.2807       11153.754    
   1232000   8848.2666     -7536.2822      1841.9243     -6144.339       4287.4291      2954.7673      936.9737       1683.9714      10823.822     -1975.5555      302.62255     -143.61009      141393.17      0.91738049    -7813.0039      714.93831      11172.025    
   1234000   9202.7991     -7527.5686      1858.4715     -6144.1144      4412.0899      3027.2028      943.30888      1713.8037      10919.605     -1716.8062      305.30055     -417.29371      141177.71      0.9187806     -7791.2924      714.44553      11190.138    
   1236000   8959.6695     -7514.8419      1826.8303     -6144.9828      4291.9179      3033.4022      961.50208      1701.6733      10804.168     -1844.4989      302.07305      987.7021       141174.3       0.91880277    -7800.9344      717.33827      11208.191    
   1238000   8906.048      -7516.3734      1846.2681     -6144.683       4314.9352      3046.8516      925.03911      1714.7123      10719.298     -1813.2501      299.70017     -1517.4227      141234.38      0.91841191    -7790.0486      718.88014      11226.248    
   1240000   8959.7782     -7604.3154      1852.6111     -6145.9056      4370.7187      3032.9616      955.49027      1690.9533      10807.264     -1847.4859      302.15961     -107.13091      140146.21      0.92554295    -7869.6925      715.33795      11244.308    
   1242000   9089.2952     -7490.5331      1886.1776     -6142.2467      4462.3903      3068.4584      992.47715      1643.7347      10668.837     -1579.5416      298.28933     -237.08208      141200.04      0.9186353     -7719.6615      721.59091      11262.265    
   1244000   9033.466      -7481.566       1848.1927     -6143.8926      4389.1462      3001.6337      926.32529      1689.3556      10804.271     -1770.8052      302.07593     -163.19422      141289.6       0.91805295    -7755.7282      723.29327      11280.098    
   1246000   8985.535      -7600.9088      1841.116      -6144.2956      4355.5303      3059.7499      972.49704      1697.3252      10804.521     -1818.986       302.08291     -330.38439      140236.31      0.92494832    -7877.0333      721.94585      11297.969    
   1248000   9021.8127     -7613.8774      1876.7375     -6144.1324      4425.9771      3083.6927      892.50361      1668.6209      10832.291     -1810.4779      302.85932     -371.95135      139435.4       0.93026115    -7854.8462      722.42298      11315.983    
   1250000   8918.5354     -7540.0311      1835.2175     -6145.8152      4463.768       3064.1759      922.51408      1692.1028      10626.603     -1708.068       297.10853      366.56935      140807.18      0.9211983     -7819.9308      724.86138      11333.935    
   1252000   8907.3818     -7474.6968      1879.6584     -6144.6987      4347.4845      3005.4029      927.91312      1623.6007      10742.718     -1835.3359      300.35496     -530.21422      141484.36      0.9167892     -7713.9693      727.39608      11351.879    
   1254000   8898.0938     -7490.9178      1879.3377     -6144.4526      4359.9699      3009.5951      967.53969      1707.4524      10609.569     -1711.4756      296.63227     -272.51434      141606.1       0.91600108    -7728.4853      728.50195      11369.721    
   1256000   9201.8        -7496.7013      1884.5194     -6144.4633      4407.9204      3129.8564      951.00522      1733.2365      10736.427     -1534.6266      300.17907      490.72234      141545.86      0.9163909     -7730.7262      731.07718      11387.647    
   1258000   8873.3888     -7508.8723      1884.5577     -6144.2775      4381.8384      3011.3586      1004.6391      1700.347       10543.798     -1670.4089      294.79337     -308.72662      141458.27      0.91695835    -7732.0702      729.08511      11405.876    
   1260000   9106.1595     -7507.014       1865.3362     -6144.2414      4517.9801      3006.0172      948.04255      1671.0564      10748.982     -1642.8229      300.53011      381.9059       141075.57      0.91944578    -7753.3055      728.75194      11424.062    
   1262000   8808.0497     -7586.2141      1858.3567     -6144.3502      4366.2953      3012.2147      940.0656       1709.9121      10651.77      -1843.7198      297.81215     -223.14366      140042.24      0.9262301     -7845.1757      725.98352      11442.334    
   1264000   9302.795      -7556.0774      1898.3634     -6145.7269      4463.832       3098.3432      929.10221      1722.6988      10892.26      -1589.4647      304.536        236.48773      141183.49      0.91874298    -7775.7351      728.07883      11460.556    
   1266000   8855.2454     -7507.7866      1826.0809     -6145.2497      4296.0269      3061.4075      939.15188      1659.7483      10725.866     -1870.6209      299.88381      658.00032      140676.08      0.92205678    -7797.2308      726.59013      11478.811    
   1268000   8900.3432     -7574.0245      1839.4114     -6145.9058      4306.5891      3051.3117      929.26819      1742.8862      10750.807     -1850.4638      300.58113     -662.44147      140672.89      0.92207773    -7849.5066      727.54184      11496.812    
   1270000   8733.1228     -7607.8045      1856.3971     -6145.5392      4415.9364      2997.6716      968.92729      1718.9431      10528.591     -1795.4683      294.36821      182.00545      139445.28      0.93019523    -7869.7299      723.10606      11515.111    
   1272000   9133.6281     -7548.2864      1857.4139     -6145.2628      4331.4537      3027.6848      962.11713      1672.2886      10976.219     -1842.5911      306.88341     -88.638335      140692.32      0.9219504     -7809.8571      728.94853      11533.314    
   1274000   8965.1966     -7487.8343      1863.2843     -6143.2074      4379.6393      2900.3723      936.49494      1668.1016      10848.346     -1883.1492      303.30821     -49.896462      141657.12      0.91567118    -7741.6469      733.37386      11551.301    
   1276000   8945.163      -7526.9657      1871.3523     -6144.6257      4328.9207      3022.5515      958.97097      1702.0014      10732.958     -1787.7945      300.08208      129.52801      141448.49      0.9170217     -7772.5034      732.54175      11569.241    
   1278000   8758.6945     -7604.1673      1865.6246     -6144.9592      4303.4771      3023.6962      976.6261       1658.0838      10680.313     -1921.6187      298.6102       188.79009      140099.3       0.92585285    -7856.6483      729.28771      11587.23     
   1280000   8792.6762     -7606.6731      1844.805      -6146.5607      4354.5214      3038.6405      932.57114      1704.4816      10670.89      -1878.2142      298.34675     -391.02717      140110.79      0.92577692    -7878.3707      729.20848      11605.083    
   1282000   8991.3669     -7631.056       1821.967      -6144.1567      4440.0215      3081.5493      936.30032      1714.8363      10771.905     -1780.5383      301.17101      789.04038      139713.78      0.9284076     -7922.4328      729.89123      11623.016    
   1284000   8943.413      -7515.3131      1865.7962     -6144.8064      4347.8263      3069.5168      966.40155      1681.4193      10672.572     -1729.1593      298.39377      334.12739      140671.05      0.92208979    -7764.7949      731.41883      11641.062    
   1286000   8799.3913     -7579.336       1856.8214     -6144.4472      4257.2193      3044.0748      949.23552      1715.4945      10700.329     -1900.9377      299.16982      451.30283      140309.58      0.92446532    -7838.8945      730.67643      11659.161    
   1288000   9005.3284     -7654.0399      1858.6942     -6144.1648      4453.5144      3043.5309      963.77784      1696.5837      10787.432     -1782.1036      301.60512      526.74733      139518.39      0.92970781    -7911.8132      729.5414       11677.358    
   1290000   8866.4852     -7543.4204      1845.3132     -6144.464       4280.4436      3006.2697      971.31287      1677.5514      10773.479     -1906.9936      301.21501      422.86265      140509.54      0.92314967    -7815.5006      737.68088      11695.493    
   1292000   8909.2602     -7592.9249      1840.4543     -6145.3358      4315.7921      3072.637       1011.0876      1666.5764      10740.973     -1831.7133      300.30619      140.77271      140311.97      0.92444952    -7866.852       737.80852      11713.667    
   1294000   9093.7134     -7522.601       1833.9075     -6144.5345      4417.8588      3089.8022      967.86926      1694.4211      10756.99      -1663.2767      300.754       -84.484352      141010.98      0.91986691    -7803.4037      743.14611      11732.067    
   1296000   8991.9702     -7548.9077      1876.9323     -6144.1202      4383.0333      3007.5083      933.57611      1669.4105      10814.538     -1822.5674      302.36297     -200.19299      140916.59      0.92048308    -7793.2321      739.00741      11750.695    
   1298000   8972.5097     -7546.2279      1881.9072     -6143.6745      4367.1899      3015.0234      931.37695      1675.1806      10791.734     -1819.2245      301.72541     -16.501299      141270.97      0.91817404    -7778.8317      743.4815       11769.287    
   1300000   8948.6242     -7521.2593      1834.7616     -6145.6446      4335.5439      3075.6652      975.45908      1724.5296      10669.569     -1720.9444      298.30979      1060.87        140461.67      0.92346432    -7804.4176      741.73556      11787.497    
   1302000   9176.9354     -7570.3073      1867.8183     -6143.9544      4446.9971      3097.9783      940.29772      1643.8154      10894.29      -1717.355       304.59277      495.41017      141083.34      0.91939517    -7817.3431      742.47539      11805.63     
   1304000   8954.2318     -7604.8952      1826.3408     -6144.137       4389.9744      3081.2024      963.80083      1669.1428      10772.803     -1818.5709      301.1961      -205.38443      139697.96      0.92851274    -7893.8314      741.99689      11823.913    
   1306000   9133.6139     -7551.5272      1855.6624     -6144.9868      4389.8843      3068.7963      986.45219      1724.577       10804.756     -1671.142       302.08948     -122.20843      140857.98      0.92086611    -7812.7678      748.70314      11842.159    
   1308000   9067.88       -7534.3926      1854.7019     -6144.3691      4360.117       3091.1184      986.64481      1677.714       10776.346     -1708.4656      301.29516     -56.224329      140155.64      0.9254807     -7792.967       744.21144      11860.386    
   1310000   8989.4878     -7605.3817      1865.8404     -6145.3669      4436.4578      3025.7639      965.14718      1707.2946      10739.732     -1750.2447      300.27149     -373.8632       140391.44      0.92392624    -7858.2544      747.48365      11878.477    
   1312000   8997.3013     -7585.3372      1858.8193     -6145.0415      4421.3266      3049.3582      1011.546       1681.4726      10705.157     -1707.8561      299.30481     -180.9436       140804.82      0.92121379    -7837.2735      749.54081      11896.645    
   1314000   8689.8424     -7602.0755      1849.6038     -6145.4921      4289.8514      2975.9043      935.95669      1680.4691      10705.625     -2015.7823      299.31788      738.2884       140644.17      0.92226599    -7867.3889      750.44789      11915.053    
   1316000   8976.9037     -7562.5689      1859.0394     -6144.5507      4449.4925      3043.4831      925.66505      1721.7094      10684.634     -1707.7302      298.731       -458.96786      140333.01      0.92431092    -7822.6001      752.0484       11933.429    
   1318000   8906.8693     -7493.182       1897.0647     -6144.3324      4329.7264      2993.9386      982.63448      1646.6006      10694.419     -1787.5497      299.00458     -285.29622      141818.67      0.91462809    -7714.5169      756.40908      11951.624    
   1320000   8916.2403     -7514.1123      1876.6823     -6143.8555      4346.9994      3070.9852      913.60153      1676.5689      10689.371     -1773.1306      298.86344      82.307647      140942.56      0.92031344    -7750.5938      756.2322       11969.777    
   1322000   9126.1942     -7527.0554      1865.8297     -6144.8402      4446.1769      2997.0562      956.62306      1694.0166      10838.387     -1712.1933      303.02978      472.67825      141123.33      0.9191346     -7778.2298      756.01973      11987.979    
   1324000   8812.7792     -7524.8699      1840.7083     -6144.0333      4310.5495      2989.4799      958.41213      1684.9865      10697.546     -1884.767       299.09201     -847.54594      141217.23      0.91852342    -7797.6026      758.09109      12006.313    
   1326000   8961.2259     -7597.3329      1851.2563     -6143.3259      4326.64        3080.0951      917.89374      1752.1777      10773.822     -1812.596       301.2246      -59.877304      140514.31      0.92311835    -7858.7944      757.866        12024.761    
   1328000   8903.5284     -7545.2629      1843.6671     -6144.0881      4394.4866      3003.4913      930.91459      1679.4659      10740.854     -1837.3256      300.30285      654.62815      141014.97      0.91984091    -7818.0064      758.47127      12043.062    
   1330000   8824.5791     -7523.2818      1864.8651     -6144.3383      4268.5833      3055.4012      918.75429      1723.6184      10660.977     -1836.3977      298.06957     -28.673724      141277.84      0.91812941    -7769.6869      762.87227      12061.148    
   1332000   9017.6256     -7515.8306      1862.7813     -6144.8531      4412.7748      3053.5816      915.77414      1681.6845      10751.713     -1734.0873      300.60645      394.10146      141201.85      0.91862352    -7772.0197      762.70016      12079.141    
   1334000   8863.2168     -7581.3101      1865.3911     -6143.0687      4379.0984      3026.2531      933.14455      1636.347       10747.362     -1884.1448      300.4848       358.75967      140714.15      0.92180735    -7831.9315      762.47709      12097.179    
   1336000   9027.3441     -7521.9961      1862.3888     -6144.2419      4361.5693      3057.5549      959.77542      1676.7753      10775.518     -1748.1743      301.27203     -382.17313      141309.73      0.91792218    -7774.0158      765.83569      12115.279    
   1338000   8951.1146     -7581.7127      1852.1392     -6144.2515      4384.516       3022.4098      915.27928      1637.9619      10864.773     -1913.658       303.76749      177.24586      140081.36      0.92597141    -7843.9094      759.83169      12133.246    
   1340000   8956.8974     -7566.2645      1820.0583     -6146.9359      4337.179       3068.2155      988.50456      1691.173       10764.968     -1808.0701      300.97704      140.00387      140531.22      0.92300729    -7863.3379      766.5625       12151.308    
   1342000   8867.1135     -7584.1984      1852.6137     -6145.3685      4357.9236      3012.0684      922.33491      1669.4551      10782.285     -1915.1713      301.46121      289.58039      141294.57      0.91802071    -7847.8199      770.28351      12169.485    
   1344000   9098.1162     -7527.3379      1853.3456     -6145.6599      4407.3132      3105.7161      960.55499      1689.0351      10755.149     -1657.0328      300.70253      69.522144      140567.79      0.92276714    -7792.8323      767.99353      12187.792    
   1346000   9051.5271     -7518.7604      1851.6837     -6144.6899      4435.6183      3066.8729      925.88775      1693.2874      10741.627     -1690.1003      300.32448      259.8492       141433.05      0.9171218     -7779.4909      773.17754      12205.926    
   1348000   8993.7989     -7587.7881      1860.257      -6143.8865      4371.4118      3078.6069      992.88029      1740.4562      10681.861     -1688.0624      298.65348     -155.9799       139810.17      0.92776752    -7842.4091      772.0504       12223.953    
   1350000   9006.3856     -7534.1332      1855.755      -6144.5681      4370.449       3107.1604      945.18227      1711.0425      10695.498     -1689.1121      299.03474      621.15684      141075.48      0.91944634    -7794.8582      774.51148      12242.066    
   1352000   9032.7404     -7574.3863      1849.5382     -6144.1874      4368.3055      2989.5727      1003.3296      1681.8057      10858.762     -1826.022       303.59945      254.51051      139916.42      0.92706299    -7838.7533      768.78401      12260.207    
   1354000   8777.7442     -7586.1128      1821.9256     -6143.9958      4382.2207      2979.0728      975.41234      1677.4609      10671.76      -1894.0162      298.37107      1083.8491      139973.46      0.92668523    -7875.4288      767.94575      12278.402    
   1356000   8878.157      -7602.7712      1835.1988     -6145.0659      4420.7563      2980.1304      969.73866      1704.1936      10715.976     -1837.8193      299.6073       460.02913      140321.42      0.92438726    -7880.0102      772.75952      12296.667    
   1358000   8804.0051     -7466.8233      1872.3556     -6143.3523      4291.1376      2959.0703      947.94471      1714.1407      10629.532     -1825.5267      297.1904       101.06262      141719.56      0.91526773    -7709.1751      776.22789      12314.913    
   1360000   9003.2783     -7520.8285      1862.6485     -6145.5252      4382.6171      3068.4519      943.05865      1735.2602      10677.596     -1674.3174      298.53422     -665.69663      141676.47      0.91554606    -7773.1422      777.42835      12333.29     
   1362000   8921.8747     -7528.6948      1839.6875     -6145.3619      4419.1362      2984.0894      931.15862      1662.5777      10759.282     -1837.4073      300.81808      995.55494      140890.98      0.92065042    -7805.7495      776.73751      12351.728    
   1364000   8780.6074     -7561.9968      1857.8383     -6144.5388      4389.847       2937.2654      941.1077       1647.543       10713.542     -1932.9342      299.53923     -487.81091      141209.51      0.91857368    -7822.9226      779.00309      12370.146    
   1366000   8900.3846     -7565.5529      1845.0587     -6145.1034      4494.8373      3046.5202      933.75446      1658.0025      10632.868     -1732.4832      297.28367      386.97124      140723.26      0.92174767    -7837.8827      775.87086      12388.584    
   1368000   8983.7897     -7477.1912      1860.4582     -6145.3281      4349.464       3053.5939      956.99206      1718.5455      10667.255     -1683.4657      298.24511      205.80479      141419.5       0.91720968    -7734.2017      779.63641      12406.905    
   1370000   8877.4676     -7588.1145      1858.6602     -6144.5052      4452.0208      3032.2958      940.46853      1677.7733      10648.869     -1771.401       297.73104      246.90944      140462.96      0.92345578    -7844.1027      777.16604      12425.238    
   1372000   8850.1298     -7605.882       1840.7192     -6144.8037      4396.6799      2959.8561      940.15293      1691.0906      10772.317     -1922.187       301.18252      635.39083      139552         0.92948388    -7879.9957      775.26112      12443.613    
   1374000   8883.7476     -7625.7782      1833.0386     -6145.2586      4359.093       3021.4507      924.93621      1743.76        10772.506     -1888.7583      301.18781      291.04403      139769.76      0.92803578    -7906.2692      779.55829      12462.066    
   1376000   9132.3244     -7574.5604      1878.1867     -6143.6219      4375.4885      3057.5487      975.25683      1710.7121      10853.314     -1720.9894      303.44711     -696.81919      140534.36      0.92298665    -7815.1704      782.60849      12480.414    
   1378000   9012.0536     -7571.128       1848.0668     -6144.8424      4382.1983      3093.92        969.02344      1670.8999      10763.915     -1751.8618      300.94762      263.53089      140858.55      0.92086237    -7839.5347      782.05652      12498.529    
   1380000   8889.0416     -7578.1271      1870.6641     -6145.048       4401.635       2947.1003      967.76328      1709.3729      10715.681     -1826.6395      299.59904      147.14332      140715.04      0.92180152    -7823.1993      781.54462      12516.699    
   1382000   9118.221      -7596.3483      1854.8294     -6144.621       4489.6056      2980.8559      1003.8013      1726.9053      10803.193     -1684.9718      302.04578     -461.23336      140536.99      0.9229694     -7854.0332      780.17751      12534.901    
   1384000   9211.0569     -7563.6797      1883.9101     -6143.6391      4387.3484      3144.1152      967.76882      1670.4108      10864.822     -1653.7654      303.76888      496.02695      141194.96      0.91866833    -7800.8325      783.94829      12553.171    
   1386000   8909.7109     -7545.3292      1869.3903     -6143.758       4371.0834      3085.9046      944.73322      1676.5951      10651.092     -1741.3806      297.79319     -505.59626      140902.12      0.9205776     -7795.4727      783.74868      12571.39     
   1388000   8922.2775     -7551.8943      1856.9786     -6145.7312      4352.151       3064.8864      939.3551       1714.9757      10691.556     -1769.2788      298.92454     -518.43202      140626.75      0.92238024    -7814.5045      785.46859      12589.494    
   1390000   8884.2322     -7626.1866      1873.807      -6144.8973      4425.5786      3022.5312      945.64441      1668.1211      10719.634     -1835.4016      299.70956     -294.64616      139564.11      0.92940323    -7872.2345      781.98172      12607.688    
   1392000   8969.4925     -7609.4053      1857.6442     -6145.6788      4324.0535      3123.5749      903.05939      1665.885       10850.36      -1880.8673      303.36452      125.87402      140546.04      0.92290996    -7871.7922      787.4295       12625.967    
   1394000   9023.0157     -7479.9035      1832.5787     -6144.8918      4410.3592      3010.6396      923.44955      1688.0803      10782.704     -1759.6879      301.47292     -544.72838      142221.69      0.91203626    -7764.2242      792.80848      12644.059    
   1396000   9139.3162     -7462.4835      1854.1752     -6144.7602      4400.5627      3058.6986      944.76001      1685.7071      10802.656     -1663.3401      302.03078      171.57806      141555.3       0.91632976    -7723.9418      790.98867      12662.182    
   1398000   8926.7283     -7472.9722      1859.9094     -6145.3176      4356.1757      3002.63        959.00568      1651.6404      10715.657     -1788.9286      299.59837      109.07013      141673.55      0.91556498    -7736.1229      795.55087      12680.23     
   1400000   9050.0769     -7456.8083      1870.7542     -6143.8424      4396.0908      3008.3606      908.03489      1713.1768      10754.31      -1704.2332      300.67907      714.84692      142142.49      0.91254444    -7697.2044      797.25573      12698.5      
   1402000   8982.5103     -7576.9908      1839.571      -6144.0264      4414.5421      2999.1268      926.74615      1744.9943      10778.547     -1796.0367      301.35671     -232.83259      139982.56      0.92662501    -7856.43        790.57338      12716.683    
   1404000   8906.6541     -7545.4818      1848.8708     -6144.2853      4265.8768      3033.4272      951.12262      1682.0913      10815.033     -1908.3785      302.37681     -408.95106      140275.14      0.92469227    -7811.6006      791.11927      12734.741    
   1406000   9163.7479     -7548.2808      1877.9711     -6142.6736      4321.2395      3069.0688      1016.1923      1666.858       10903.373     -1739.6246      304.8467       624.95583      141289.72      0.91805222    -7782.1426      793.23889      12752.941    
   1408000   9116.938      -7497.5753      1862.217      -6145.1972      4371.3761      2962.1938      941.66535      1740.6596      10881.599     -1764.6606      304.23792     -875.90296      140889.5       0.92066009    -7752.9095      794.36854      12771.154    
   1410000   9202.6979     -7542.3012      1872.5485     -6144.7677      4372.6792      3061.7753      966.16527      1673.3988      10943.2       -1740.5019      305.96022      117.39003      140864.58      0.92082296    -7789.0942      795.51622      12789.571    
   1412000   9025.4586     -7508.772       1850.0185     -6143.8051      4331.2543      3066.17        931.32332      1686.7235      10812.546     -1787.0875      302.30729      288.45698      141390.74      0.91739626    -7771.4453      797.85655      12807.743    
   1414000   8932.3521     -7542.4958      1846.1367     -6143.6932      4332.5638      3019.0077      969.66735      1695.3552      10755.81      -1823.4582      300.72102     -933.98353      140835.37      0.92101396    -7812.2907      797.66488      12825.788    
   1416000   8951.8318     -7584.4705      1857.4743     -6144.4448      4336.0175      3062.3104      987.05742      1660.7814      10777.106     -1825.2743      301.31643     -106.9641       140621.33      0.92241582    -7843.7406      797.54922      12843.952    
   1418000   8911.8107     -7524.9222      1840.9314     -6143.9163      4370.3424      3028.5326      967.39444      1679.3139      10694.134     -1782.3237      298.99662     -182.12235      141619.14      0.91591675    -7799.4367      802.88461      12862.022    
   1420000   8950.4444     -7523.2994      1835.719      -6146.4342      4402.5515      3067.9512      966.82268      1656.0508      10691.083     -1740.6385      298.91131     -43.398296      140745.12      0.92160453    -7808.6336      798.9691       12880.248    
   1422000   8726.313      -7565.2318      1826.6159     -6146.2297      4364.0746      3018.4787      917.80691      1690.567       10620.231     -1893.9183      296.93037     -83.839102      140798.77      0.92125337    -7857.2081      801.11271      12898.472    
   1424000   9109.1052     -7522.8677      1846.1288     -6144.4243      4408.375       3095.3283      942.98275      1724.7798      10758.802     -1649.6973      300.80467     -228.2272       141009.19      0.91987862    -7794.5139      801.05108      12916.467    
   1426000   9017.3704     -7543.7397      1840.1136     -6145.5011      4365.7255      3124.7313      954.70562      1651.5684      10769.767     -1752.3963      301.11122      78.091723      140450.32      0.92353891    -7823.6457      798.78723      12934.482    
   1428000   8956.0654     -7578.0363      1848.5005     -6146.5788      4405.1145      3039.0174      939.72773      1694.2184      10754.102     -1798.0367      300.67326     -992.57863      141136.73      0.91904732    -7851.5743      804.5986       12952.444    
   1430000   8836.4929     -7604.7308      1841.5686     -6145.3981      4366.1952      2978.7438      959.34302      1743.6049      10697.166     -1860.6732      299.08138      208.85302      139896.41      0.92719562    -7877.0219      803.7312       12970.476    
   1432000   8934.5925     -7604.7428      1821.581      -6144.8428      4278.2435      3034.384       929.21714      1681.0619      10939.691     -2005.098       305.86211     -384.33607      139925.28      0.92700433    -7898.8909      804.15988      12988.384    
   1434000   8917.4071     -7587.6269      1843.7287     -6143.8612      4414.5891      3002.6029      958.6662       1676.95        10752.358     -1834.9513      300.6245      -519.07924      140313.29      0.92444086    -7857.77        806.20837      13006.38     
   1436000   8997.456      -7575.3902      1821.346      -6145.1861      4461.5533      3025.4633      954.26882      1708.2348      10747.166     -1749.71        300.47933      408.78027      139906.16      0.92713099    -7866.7595      805.50519      13024.366    
   1438000   9174.8313     -7541.4962      1838.9956     -6145.2928      4469.7686      3096.3474      953.76072      1625.6889      10877.059     -1702.2278      304.111        66.45575       140587.31      0.92263899    -7818.0218      808.55109      13042.579    
   1440000   9170.3088     -7437.221       1891.6001     -6142.7707      4327.5232      3028.8586      973.08572      1687.1276      10842.105     -1671.7965      303.13373     -301.91744      141955.31      0.91374769    -7658.7157      812.87436      13060.607    
   1442000   8820.605      -7516.7282      1872.9825     -6144.5683      4235.2257      3044.3728      956.33212      1707.3972      10665.591     -1844.9862      298.19859     -168.52828      141393.83      0.91737624    -7763.1976      813.1184       13078.607    
   1444000   8875.9899     -7559.3894      1840.2553     -6144.7531      4273.9596      3003.2875      929.76147      1688.2535      10844.615     -1968.625       303.2039       22.161444      139779.22      0.92797296    -7836.9713      808.67142      13096.598    
   1446000   9084.5313     -7535.2633      1843.8157     -6143.7203      4410.0838      3094.1162      933.42897      1685.3841      10796.686     -1712.1548      301.86386      160.80878      140729.71      0.92170544    -7806.7624      812.84871      13114.66     
   1448000   8958.2085     -7646.451       1848.1872     -6144.7898      4397.2609      3027.6785      988.83284      1683.4507      10804.039     -1845.8307      302.06944     -424.81441      139403.93      0.93047115    -7914.8719      807.07448      13132.89     
   1450000   9019.6541     -7610.5734      1843.8149     -6145.4907      4375.7308      3076.8824      991.00275      1674.7038      10813.584     -1793.9295      302.33629      642.92006      139673.32      0.92867652    -7880.4253      808.70117      13151.097    
   1452000   9146.651      -7495.6067      1853.1206     -6147.0633      4337.684       3126.2364      961.64805      1686.4523      10824.18      -1677.5286      302.63255      1234.0809      141134.45      0.91906216    -7760.2856      812.09049      13169.283    
   1454000   8919.7196     -7564.0636      1815.9708     -6144.6542      4377.1719      3034.2145      956.74611      1683.2723      10761.062     -1841.3423      300.86784      339.08504      140300.14      0.92452749    -7862.2468      809.67486      13187.419    
   1456000   8876.7552     -7574.6527      1847.7813     -6144.6439      4315.9738      3085.7692      922.51335      1701.7463      10722.268     -1845.5126      299.7832      -259.46328      140284.59      0.92462999    -7841.7117      810.33017      13205.649    
   1458000   9050.7863     -7571.2095      1876.9212     -6144.1987      4375.4944      3097.9231      936.12117      1717.8898      10761.845     -1711.0585      300.88973     -61.649693      140988.62      0.92001281    -7806.497       812.7257       13223.975    
   1460000   8723.8106     -7613.4432      1866.6841     -6144.0331      4280.2346      3037.7754      974.35487      1707.8026      10614.435     -1890.6249      296.76833      668.82532      140426.34      0.92369664    -7861.5557      814.47014      13242.064    
   1462000   8852.16       -7565.8606      1836.468      -6146.2762      4328.3989      3090.1503      924.73099      1668.5303      10716.018     -1863.8584      299.60848      1271.9193      140111.22      0.92577408    -7849.2831      811.89463      13260.227    
   1464000   8960.1665     -7569.8315      1882.9483     -6145.1569      4343.1164      3027.4437      926.66897      1698.0112      10796.966     -1836.7998      301.87169     -107.91637      140352.95      0.92417961    -7803.3898      814.3958       13278.501    
   1466000   8970.1288     -7659.4219      1869.1881     -6142.7743      4435.161       3080.5083      1015.2488      1697.8914      10674.327     -1704.1986      298.44284     -410.59151      139027.75      0.93298883    -7906.0457      808.68045      13296.596    
   1468000   9042.3975     -7597.166       1863.3289     -6144.7955      4442.3778      3081.2196      957.38409      1671.1771      10768.872     -1726.474       301.08619     -798.2065       140578.99      0.92269359    -7855.781       816.24441      13314.751    
   1470000   8905.9167     -7617.5231      1858.8528     -6145.318       4357.959       3001.007       949.26124      1664.879       10836.799     -1930.882       302.98536      325.08198      139728.92      0.92830699    -7876.7084      811.6335       13332.908    
   1472000   8937.7029     -7547.6435      1864.3854     -6145.3035      4366.5873      3057.7656      926.76392      1676.4581      10738.69      -1800.9866      300.24234     -372.59115      140745.95      0.92159907    -7797.6264      816.42353      13351.131    
   1474000   9034.6698     -7487.2848      1859.6032     -6143.6104      4413.8729      3054.501       986.4038       1680.5741      10670.61      -1635.9402      298.33891      969.15901      141206.45      0.91859356    -7742.311       817.02789      13369.406    
   1476000   9123.5404     -7518.3546      1878.1237     -6146.4601      4319.9302      3108.6746      953.99733      1702.6271      10825.002     -1701.4617      302.65554      273.23282      141078.83      0.91942453    -7763.4319      818.34261      13387.773    
   1478000   8995.0689     -7544.2365      1882.3399     -6145.287       4347.9212      3036.3941      936.82845      1709.3003      10771.808     -1776.7394      301.1683      -1036.4636      141262.56      0.91822868    -7784.8296      816.48691      13406.041    
   1480000   9063.9893     -7548.3335      1882.6394     -6145.7875      4382.043       3007.2456      945.15264      1732.9111      10808.119     -1744.1293      302.1835       156.68963      141078.49      0.91942672    -7778.4243      817.17663      13424.17     
   1482000   8814.4791     -7625.6596      1853.7106     -6142.5116      4369.9988      2986.4366      927.56846      1658.625       10786.311     -1971.8317      301.57377      69.734225      139909.11      0.92711143    -7886.2601      813.14758      13442.305    
   1484000   8766.1175     -7516.8497      1858.4699     -6144.6759      4361.5669      2996.9375      962.99968      1651.8489      10595.82      -1829.7029      296.24787      692.25667      141269.04      0.91818659    -7774.4708      820.9577       13460.343    
   1486000   8850.5268     -7564.389       1904.1323     -6143.446       4375.2044      2995.1897      929.737        1663.2964      10690.802     -1840.2752      298.90345      1004.989       141412.1       0.91725772    -7780.0288      821.6415       13478.368    
   1488000   9062.9212     -7546.4358      1849.7248     -6145.6293      4421.6693      3070.0788      1005.3029      1745.7683      10662.442     -1599.5209      298.11054     -462.91529      140970.94      0.92012819    -7809.5213      824.01175      13496.239    
   1490000   9161.5242     -7486.602       1829.1254     -6144.778       4497.084       3038.7249      948.67397      1753.9419      10725.354     -1563.8299      299.86949     -482.28698      141019.68      0.91981015    -7773.9934      824.02508      13514.033    
   1492000   8991.0535     -7519.048       1848.8579     -6146.8478      4417.9072      3094.7425      963.70409      1679.8726      10651.865     -1660.8114      297.81481     -37.078018      140876.07      0.92074783    -7782.7396      823.74283      13531.906    
   1494000   8870.4941     -7529.3607      1856.5301     -6144.7649      4380.4985      3056.719       956.61451      1687.0879      10607.17      -1736.6757      296.56518      371.95077      140546.56      0.92290653    -7788.0745      825.32088      13549.87     
   1496000   9156.3789     -7543.0666      1849.4629     -6145.35        4340.8219      3178.02        952.97098      1675.7702      10847.75      -1691.3707      303.29154      578.27671      141045.66      0.91964077    -7811.6711      827.27547      13567.96     
   1498000   8813.6436     -7611.9896      1857.1729     -6143.8793      4306.1542      3064.3849      931.07352      1692.8497      10717.877     -1904.2337      299.66045     -515.90824      139411.12      0.93042316    -7872.4427      820.25605      13585.892    
   1500000   9066.0875     -7505.3094      1826.3521     -6143.0577      4454.8481      3054.888       966.90317      1659.9939      10751.469     -1685.3818      300.59965     -756.3576       140861.62      0.92084226    -7794.6448      825.60579      13603.921    
   1502000   9124.6926     -7492.2283      1842.1988     -6146.554       4544.6492      3023.3982      949.8261       1674.3167      10729.086     -1604.3934      299.97383     -1051.2759      141087.45      0.91936834    -7770.1794      827.86218      13621.93     
   1504000   9308.1295     -7534.3157      1881.0354     -6143.5052      4365.1478      3111.3139      949.14621      1733.4641      10945.843     -1637.7135      306.03413     -637.112        141709.14      0.91533501    -7773.2034      833.79147      13640.032    
   1506000   8975.0053     -7595.5944      1874.0295     -6145.3511      4418.212       3078.4536      988.65329      1705.675       10650.927     -1675.9221      297.7886       344.35726      140256.3       0.92481649    -7838.4205      832.76927      13658.04     
   1508000   8962.2084     -7536.605       1840.9778     -6144.305       4352.0959      3050.0063      916.89713      1668.4368      10814.704     -1852.496       302.36763     -1157.9386      140463.35      0.92345328    -7811.5326      836.10841      13675.996    
   1510000   8847.9496     -7578.6685      1836.2794     -6144.0675      4334.3993      3005.4485      946.41361      1679.4183      10768.727     -1920.7769      301.08214     -240.81651      140121.89      0.92570357    -7860.1611      836.05558      13694.019    
   1512000   8928.5647     -7541.2402      1876.981      -6145.1461      4320.9407      3034.6892      979.71162      1680.7057      10721.923     -1793.3581      299.77356      176.56815      140769.73      0.92144338    -7779.7498      840.73535      13711.726    
   1514000   9027.537      -7557.2069      1852.5437     -6144.1425      4445.5942      3098.3633      906.12917      1704.1323      10722.124     -1694.5868      299.77918     -227.12973      139593.84      0.9292053     -7819.379       839.24655      13729.335    
   1516000   8945.2957     -7532.8636      1852.895      -6143.944       4367.6662      3000.3833      915.26557      1724.1292      10761.764     -1816.4684      300.88748      644.81612      140922.22      0.92044631    -7797.4873      844.22554      13747.054    
   1518000   9069.3332     -7526.2889      1870.0895     -6143.0944      4440.1635      2984.1207      983.27697      1682.3419      10778.724     -1709.3906      301.36165     -353.96886      141250.49      0.9183072     -7771.8323      845.79036      13764.826    
   1520000   8881.1639     -7577.0509      1848.0863     -6143.986       4381.7392      3033.908       917.1429       1681.8819      10739.443     -1858.2787      300.26339      480.14136      140081.57      0.92597003    -7845.2526      844.15983      13782.44     
   1522000   8974.8392     -7552.5975      1883.0076     -6145.5197      4363.5592      3004.6766      920.94788      1633.2163      10867.549     -1892.7097      303.84511     -301.85321      141141.08      0.919019      -7786.7014      848.14531      13800.095    
   1524000   9004.0983     -7499.9102      1850.4567     -6145.9502      4417.22        3062.3281      928.01984      1700.0953      10691.839     -1687.7404      298.93244      749.2168       141020.06      0.91980768    -7762.7865      852.26657      13817.85     
   1526000   9315.5485     -7539.4583      1865.6295     -6144.2523      4435.1784      3130.855       1005.1188      1697.6978      10864.779     -1549.231       303.76768     -404.21572      141159.84      0.91889688    -7789.3724      856.24326      13835.802    
   1528000   8716.7637     -7590.9432      1844.02       -6144.4909      4321.777       2950.5553      986.53124      1630.6583      10718.656     -2001.8922      299.68222      331.16131      140630.43      0.92235611    -7862.2988      853.81442      13853.877    
   1530000   8951.2072     -7569.7829      1859.7669     -6141.778       4426.9746      3096.6615      954.40552      1695.5822      10629.377     -1678.1701      297.18608     -610.05292      140404.27      0.92384183    -7822.7872      854.37282      13872.034    
   1532000   9077.6146     -7518.676       1875.3435     -6142.7575      4493.1862      3007.3625      961.47472      1695.7793      10705.902     -1628.2874      299.32563     -315.43542      141045.39      0.91964249    -7757.8853      858.85815      13890.315    
   1534000   9204.3618     -7538.5817      1846.9994     -6144.2674      4476.0296      3089.9536      904.70509      1684.5124      10885.011     -1680.649       304.33332     -453.34407      140991.09      0.91999669    -7809.3253      859.72559      13908.472    
   1536000   8833.9078     -7595.3434      1855.0196     -6143.991       4335.5639      2987.9771      1006.9461      1705.7044      10682.031     -1848.1233      298.65823      485.61832      139782.64      0.92795025    -7853.0912      855.97842      13926.725    
   1538000   8864.7536     -7547.2804      1847.788      -6144.4979      4321.2666      3036.0759      963.77372      1690.4802      10697.147     -1832.3938      299.08086     -974.22074      140718.93      0.92177602    -7818.0992      861.7997       13945.113    
   1540000   8947.6529     -7500.8547      1880.6703     -6145.0089      4316.7914      3078.8091      923.07823      1679.0734      10715.094     -1767.4412      299.58263     -383.31923      141505.79      0.9166504     -7737.0872      864.73921      13963.302    
   1542000   8905.5296     -7500.2269      1871.307      -6144.6232      4342.7452      3010.4977      946.15912      1646.3085      10733.362     -1827.8326      300.09339      546.19739      141055.38      0.91957739    -7744.4668      863.20342      13981.368    
   1544000   8853.8059     -7559.9488      1851.5976     -6144.5312      4349.5672      3024.7441      976.29819      1693.8282      10662.251     -1808.4447      298.10519     -229.13243      140471.2       0.92340167    -7823.1885      863.17055      13999.603    
   1546000   9092.7631     -7489.0779      1879.1601     -6142.7268      4439.935       3048.673       939.17169      1682.7482      10734.88      -1642.1167      300.13582      743.16887      142018.54      0.91334086    -7720.2016      870.13228      14017.753    
   1548000   8883.6198     -7560.6608      1837.632      -6144.6599      4439.5425      3039.0374      920.91884      1685.3668      10666.443     -1782.8231      298.2224       702.58911      140279.55      0.92466322    -7839.4127      863.95576      14035.97     
   1550000   8856.7803     -7523.8134      1852.3007     -6144.4281      4344.1054      3055.0373      939.61029      1681.1168      10652.851     -1796.0711      297.84239     -229.68153      140996.85      0.91995912    -7789.9434      867.04939      14054.124    
   1552000   8953.362      -7570.8872      1881.5336     -6143.7765      4307.1281      3063.5353      976.78341      1695.5444      10743.501     -1790.1389      300.37686      328.81806      140381.69      0.92399041    -7807.2186      867.7372       14072.245    
   1554000   8988.9288     -7556.1659      1853.0644     -6144.5912      4440.947       2973.0022      973.37786      1690.9854      10758.309     -1769.3803      300.79088     -108.17581      140817.51      0.92113073    -7814.833       867.04171      14090.478    
   1556000   8931.1429     -7619.8223      1859.141      -6145.8866      4375.5722      3048.8695      918.1762       1700.0687      10795.024     -1863.8813      301.81739      370.43073      140411.37      0.92379512    -7881.8482      867.29101      14108.744    
   1558000   9045.2187     -7506.1445      1867.963      -6144.5878      4315.1833      3045.5797      923.4071       1695.5913      10848.227     -1803.0079      303.30488     -37.53744       141217.91      0.91851902    -7751.8763      873.81852      14126.821    
   1560000   8966.9631     -7471.4433      1865.9064     -6144.7869      4320.0567      3083.885       975.89839      1697.746       10639.701     -1672.7378      297.47472     -14.748468      141732.76      0.91518245    -7722.4242      879.638        14145.065    
   1562000   9038.978      -7496.6957      1851.4893     -6144.8759      4382.4034      3056.7527      979.19743      1706.855       10703.852     -1664.8738      299.26831     -148.65729      141407.07      0.91729032    -7763.5737      878.95703      14163.376    
   1564000   8993.1558     -7555.7644      1853.6615     -6143.4995      4350.6126      3087.7832      974.54236      1699.546       10726.274     -1733.1182      299.89521      189.23945      140691.6       0.92195507    -7815.9679      879.71703      14181.565    
   1566000   9114.464      -7560.9727      1855.457      -6144.7506      4403.4403      3129.6097      956.05456      1773.807       10701.819     -1587.3548      299.21147      241.80208      140632.66      0.92234146    -7826.812       878.30502      14199.836    
   1568000   9252.3616     -7520.3064      1883.4238     -6145.1568      4410.998       3036.1757      947.18934      1710.0253      10930.013     -1677.651       305.59153     -225.88025      140666.97      0.92211653    -7752.7218      881.74266      14217.963    
   1570000   9059.4374     -7505.516       1846.3043     -6143.5972      4327.4532      3114.6848      953.03747      1725.0754      10741.995     -1682.5579      300.33476     -468.9393       141441.6       0.9170664     -7773.5373      886.5558       14236.146    
   1572000   9004.9067     -7568.7273      1850.2563     -6144.8391      4372.6464      2995.9349      939.46722      1690.626       10869.542     -1864.6356      303.90084      677.56233      140589.15      0.92262691    -7835.4131      883.59533      14254.375    
   1574000   9010.6577     -7458.9081      1858.5298     -6144.6543      4359.9805      3033.6954      929.6403       1719.8448      10712.529     -1701.8716      299.51092     -198.88005      141899.33      0.91410815    -7717.6298      890.99896      14272.432    
   1576000   9167.0029     -7558.0138      1863.0583     -6143.393       4498.9808      3031.7259      970.90222      1668.232       10835.51      -1668.5074      302.94934      533.40558      141108.56      0.91923083    -7810.745       887.86747      14290.463    
   1578000   8897.0482     -7547.4986      1863.3719     -6144.0232      4291.0611      3033.9862      910.34262      1704.2362      10785.572     -1888.5237      301.55312      342.02228      140850.71      0.92091363    -7798.5849      888.31286      14308.4      
   1580000   8845.8682     -7535.2744      1848.4492     -6144.3543      4304.8206      3117.6663      929.17869      1673.9709      10651.411     -1805.5431      297.80213      883.20748      140895.15      0.92062314    -7802.8549      887.69082      14326.262    
   1582000   9080.3126     -7532.4777      1863.6982     -6145.0956      4484.6244      3062.7169      962.28184      1617.7671      10766.797     -1686.4848      301.0282       414.99364      140862.39      0.92083723    -7790.6444      886.32756      14344.182    
   1584000   8824.2975     -7607.0221      1833.0667     -6145.6419      4226.6524      3086.152       949.38219      1708.1351      10773.573     -1949.2756      301.21764      729.63939      139999.35      0.92651382    -7891.3378      887.05445      14362.157    
   1586000   9200.939      -7534.38        1865.203      -6145.5327      4474.2996      3086.2305      945.59579      1741.9429      10767.58      -1566.6408      301.05008      764.65073      140511.84      0.92313459    -7784.6511      886.30608      14380.199    
   1588000   8973.3549     -7561.6205      1839.053      -6146.3079      4423.8224      2979.9323      965.16938      1672.8         10800.506     -1827.1513      301.97066      575.95485      140437.1       0.92362584    -7838.8887      884.09046      14398.361    
   1590000   8978.8982     -7504.0917      1844.6388     -6144.3524      4406.1784      3050.5962      935.83652      1674.0443      10716.048     -1737.1498      299.60931      1051.0092      141208.93      0.91857741    -7778.8001      886.89443      14416.663    
   1592000   8816.9797     -7548.6965      1841.8346     -6144.9896      4343.1195      3057.9344      949.91847      1655.7719      10662.087     -1845.1072      298.10061     -349.10669      140786.93      0.92133079    -7824.3803      886.96992      14434.685    
   1594000   8834.7146     -7637.0703      1862.2726     -6144.483       4398.3646      3003.7599      932.31309      1672.7288      10746.829     -1912.1142      300.4699       357.10571      138872.38      0.93403266    -7896.152       882.03609      14453.167    
   1596000   9192.8522     -7563.9842      1870.2985     -6145.2777      4310.3853      3138.8213      979.10954      1652.2725      10951.227     -1758.3748      306.18466      543.11586      140703.39      0.92187787    -7811.2269      894.10611      14471.662    
   1598000   8923.0706     -7599.0896      1842.8775     -6143.4874      4409.4089      3002.1837      927.89786      1745.9999      10737.28      -1814.2091      300.20292      487.29766      140909.91      0.92052675    -7870.9631      894.63844      14490.039    
   1600000   8935.0071     -7561.89        1848.9031     -6144.6058      4313.0211      2990.8733      915.81483      1725.8059      10847.085     -1912.0776      303.27295     -275.34281      140464.29      0.92344709    -7831.5207      894.90631      14508.319    
   1602000   9005.3087     -7536.1758      1854.6662     -6144.8839      4367.6131      3121.171       942.05183      1700.4057      10700.46      -1695.1518      299.17349     -1205.3604      141500.44      0.91668506    -7801.2541      903.44423      14526.537    
   1604000   8811.1315     -7582.3264      1878.5254     -6144.174       4349.8351      3053.6934      936.19179      1680.5555      10638.831     -1827.699       297.45039      95.97779       140276.14      0.92468565    -7823.1539      897.48742      14544.89     
   1606000   8781.7401     -7677.1108      1840.4717     -6146.2939      4289.6975      3013.0764      946.99928      1685.9117      10828.988     -2047.2482      302.767        831.20429      138680.44      0.93532538    -7953.9715      895.43909      14563.193    
   1608000   8965.8299     -7564.5369      1854.0689     -6144.0624      4369.6072      3064.2487      978.30129      1670.966       10737.237     -1771.4073      300.20173      889.78877      140134.95      0.9256173     -7818.3796      904.30413      14581.28     
   1610000   8654.9523     -7657.8419      1826.9136     -6144.6418      4324.6611      3018.2098      941.90855      1715.1691      10630.574     -1975.6215      297.21953     -319.7751       139555.65      0.92945958    -7946.0798      902.60294      14599.342    
   1612000   9049.3621     -7565.3912      1852.7514     -6145.4808      4375.1784      3073.7053      923.56112      1710.187       10824.851     -1775.4888      302.65132      948.92624      140427.46      0.92368924    -7826.7171      907.38421      14617.386    
   1614000   8779.1821     -7638.9216      1830.9047     -6143.6594      4310.8243      3027.6198      911.13173      1690.7034      10790.579     -2011.397       301.69311     -265.78437      140101.43      0.92583879    -7920.1743      905.06078      14635.694    
   1616000   8958.7053     -7560.5182      1832.152      -6144.2568      4399.6705      3020.9209      911.70127      1674.7605      10824.275     -1865.5698      302.63522      732.37369      140841.64      0.92097292    -7845.9324      908.59959      14653.991    
   1618000   8992.0255     -7602.5361      1838.8082     -6144.4796      4423.3998      3028.4231      945.02605      1690.8198      10812.564     -1820.5388      302.3078       531.75543      140289.24      0.92459935    -7878.2951      903.71825      14672.108    
   1620000   9205.6824     -7564.0943      1831.2151     -6144.8034      4418.9634      3085.0327      945.04282      1669.1072      10965.219     -1759.5366      306.57586      146.17961      140497.32      0.92322999    -7847.8473      908.71536      14690.324    
   1622000   8832.0725     -7631.0305      1818.2719     -6144.8521      4387.3545      3047.2178      963.07731      1695.7534      10696.28      -1864.2077      299.05662     -99.492798      139521.85      0.92968476    -7931.6772      907.64683      14708.621    
   1624000   9011.4087     -7591.354       1869.4793     -6145.4103      4424.7387      3091.6197      1013.0451      1682.993       10666.297     -1654.8886      298.21833      402.34033      140439.84      0.92360783    -7836.6706      911.70134      14726.84     
   1626000   9014.5463     -7565.1796      1860.1931     -6145.1277      4440.4179      3013.5945      927.11881      1733.7759      10749.753     -1735.207       300.55167     -15.501219      140779.46      0.9213797     -7818.3746      911.75059      14744.887    
   1628000   8887.316      -7598.7639      1857.869      -6143.1936      4355.1572      3074.8968      975.05445      1640.9128      10725.383     -1838.0673      299.87031      87.718406      139496.94      0.92985074    -7855.5544      908.30604      14763.024    
   1630000   8941.2886     -7501.8583      1863.4765     -6145.3444      4388.2656      3027.3965      954.24681      1691.1342      10663.972     -1722.6831      298.1533      -545.67404      141078.8       0.91942473    -7758.1392      915.78915      14781.2      
   1632000   9200.6093     -7500.1336      1845.1131     -6144.339       4467.6761      3038.3329      946.15537      1661.8532      10885.951     -1685.342       304.35962     -359.73614      140702.18      0.92188576    -7768.069       917.29629      14799.315    
   1634000   9160.4136     -7550.7931      1869.0084     -6145.4427      4422.771       3119.4118      934.6209       1674.7147      10836.123     -1675.709       302.96646      305.93981      141053.14      0.91959201    -7805.2274      918.14902      14817.375    
   1636000   9047.9956     -7581.3712      1873.6194     -6143.9363      4400.708       3084.0741      913.0417       1708.8972      10792.963     -1744.9671      301.75976     -439.25099      140483.48      0.92332095    -7826.8325      916.45956      14835.494    
   1638000   8956.0941     -7500.9443      1891.5773     -6145.5011      4364.5283      3046.805       966.07258      1674.4835      10659.073     -1702.9787      298.01634     -81.353685      141829.27      0.91455973    -7725.7391      923.98208      14853.8      
   1640000   8841.7239     -7655.67        1841.2916     -6144.4978      4461.3733      2969.8115      944.80787      1651.2329      10773.374     -1931.6506      301.21209      475.14912      138974.5       0.93334635    -7925.5974      912.28978      14872.01     
   1642000   8849.8233     -7634.9808      1829.7326     -6145.2926      4352.6705      3013.5686      948.40683      1715.7204      10769.998     -1920.1745      301.11768     -685.10234      139286.63      0.93125477    -7927.381       913.00321      14890.519    
   1644000   8930.8061     -7599.0864      1843.4402     -6143.2637      4298.7487      3113.6881      986.10195      1694.826       10736.351     -1805.545       300.17696      522.40242      139825.48      0.92766596    -7866.8651      915.62943      14908.803    
   1646000   8957.1171     -7604.616       1841.8021     -6145.6549      4376.9032      3061.7148      971.86532      1680.3077      10774.795     -1817.6777      301.2518       663.90404      139870.07      0.9273702     -7878.1523      918.88265      14926.905    
   1648000   8950.2076     -7604.9909      1841.0166     -6144.3023      4317.2503      3048.9434      977.30378      1735.8253      10779.162     -1828.9539      301.37389     -37.747832      140156.41      0.9254756     -7876.8388      919.17032      14945.116    
   1650000   8918.035      -7585.3782      1831.1452     -6144.5854      4255.9168      2990.7929      955.4728       1702.6651      10912.006     -1993.9709      305.08808     -54.334699      140670.93      0.92209058    -7868.3401      924.31744      14963.265    
   1652000   9003.0737     -7545.529       1827.4321     -6145.8228      4497.0219      3055.2936      954.03819      1694.6708      10665.969     -1662.8952      298.20915     -128.90838      140686.91      0.92198583    -7834.3822      926.65282      14981.432    
   1654000   9052.9809     -7464.1612      1853.5093     -6145.8141      4265.665       3055.9851      908.49937      1702.1438      10877.154     -1824.1727      304.11365      324.27053      142226.58      0.91200487    -7733.8631      931.12357      14999.496    
   1656000   9155.1955     -7585.6149      1891.605      -6143.9725      4351.9936      3084.5476      939.55052      1708.0932      10908.993     -1753.7974      305.00384      643.10764      140585.08      0.92265366    -7813.3291      925.15683      15017.483    
   1658000   9259.8487     -7470.2167      1840.853      -6144.9168      4413.0182      3100.0636      952.53497      1785.9775      10782.535     -1522.6863      301.46821      379.36004      142036.9       0.9132228     -7743.3454      936.02668      15035.734    
   1660000   9051.7958     -7519.5449      1872.861      -6142.9635      4427.4731      3023.6064      925.83511      1716.7704      10747.758     -1695.9625      300.49589     -658.14763      141432.71      0.91712401    -7761.8597      934.06446      15053.994    
   1662000   9022.4237     -7488.7445      1853.1611     -6145.0862      4453.5474      2989.6762      920.95493      1664.5251      10774.39      -1751.966       301.24047     -737.64576      141407.91      0.91728487    -7753.3288      934.91488      15072.066    
   1664000   9171.5991     -7582.3015      1875.7633     -6143.1505      4451.7616      3047.3545      915.95882      1739.6725      10866.541     -1694.9414      303.81691     -102.12245      139675.6       0.92866138    -7825.4147      928.47142      15090.102    
   1666000   8788.964      -7604.8481      1864.0599     -6144.8688      4383.3181      3023.2396      939.25371      1699.0409      10629.769     -1840.8047      297.19703      322.97853      140677.98      0.92204434    -7858.6259      934.07537      15108.194    
   1668000   9026.853      -7522.0571      1838.6774     -6144.1501      4369.6186      3072.8478      959.78798      1680.1132      10772.015     -1745.1623      301.17409     -599.83506      140911.02      0.92051945    -7799.4032      936.56067      15126.476    
   1670000   8989.5106     -7551.7602      1841.2334     -6145.3433      4321.5311      3014.7865      944.78214      1718.4606      10845.82      -1856.3098      303.2376       713.02402      141086.77      0.91937279    -7824.7397      937.01061      15144.496    
   1672000   9081.1312     -7543.189       1848.637      -6146.0316      4481.4332      3076.683       945.4837       1737.576       10680.539     -1599.4077      298.61651      429.61685      140772.56      0.92142489    -7809.3173      934.57483      15162.31     
   1674000   9034.3249     -7582.0678      1853.4722     -6145.1633      4401.8971      3133.8504      931.94881      1675.0342      10765.353     -1731.0284      300.98783     -1168.798       140323.36      0.92437449    -7849.3436      933.50364      15180.258    
   1676000   8994.8872     -7529.7354      1846.1463     -6145.1908      4450.2817      3065.407       922.37973      1672.8261      10712.773     -1717.8854      299.51772      69.465093      140806.46      0.921203      -7800.3532      934.75975      15198.371    
   1678000   8858.9072     -7581.7917      1861.0645     -6143.7427      4265.084       2978.2728      940.7074       1654.238       10885.075     -2026.1676      304.33511      491.95412      141072.57      0.91946534    -7833.8981      935.8681       15216.416    
   1680000   8793.7587     -7589.416       1862.9297     -6145.8408      4302.2766      3034.0368      971.41009      1700.5601      10657.802     -1864.0434      297.98081      290.69328      140643.21      0.92227227    -7847.9702      935.45319      15234.353    
   1682000   8924.3651     -7507.1377      1855.3846     -6143.2207      4299.6709      3016.0284      924.3396       1648.512       10830.788     -1906.423       302.81731     -168.19153      140547.27      0.92290186    -7770.6805      936.02175      15252.306    
   1684000   9070.3443     -7557.9798      1839.5138     -6144.9319      4362.1845      3170.405       980.90822      1659.5429      10760.702     -1690.3573      300.85777      115.10532      140428.03      0.92368552    -7839.4002      933.61515      15270.312    
   1686000   8932.7439     -7528.5603      1861.1304     -6144.221       4487.7685      3035.9437      916.74494      1700.8839      10603.054     -1670.31        296.45011     -835.04877      140691.52      0.92195559    -7782.5682      937.07946      15288.344    
   1688000   8942.7742     -7526.8517      1850.3644     -6147.4162      4369.3736      3027.0146      929.96489      1698.7333      10741.591     -1798.8171      300.32347     -921.36964      140399         0.92387653    -7794.3829      938.25846      15306.45     
   1690000   9092.1169     -7527.558       1869.4582     -6143.9804      4371.3718      3092.6778      938.73325      1707.7855      10783.629     -1691.5117      301.49879     -650.65775      141515.84      0.91658527    -7774.5488      944.50527      15324.549    
   1692000   8897.8227     -7586.3101      1865.8109     -6146.584       4399.3749      2940.5393      954.44486      1671.3248      10799.222     -1901.3994      301.93476     -744.37891      140798.09      0.92125781    -7840.3816      944.5557       15342.623    
   1694000   8928.3633     -7505.6441      1861.5078     -6144.6844      4400.8122      3057.2047      916.9989       1680.1152      10662.053     -1733.6898      298.09966      423.15592      141250.06      0.91830998    -7764.1674      947.25707      15360.861    
   1696000   8783.9457     -7602.2202      1863.9306     -6144.6345      4252.5401      3094.1803      902.1764       1677.8886      10740.084     -1956.1386      300.28133     -821.16814      139731.8       0.9282879     -7860.0975      943.76986      15379.038    
   1698000   9103.6998     -7527.0107      1864.2602     -6144.2066      4300.0713      3104.0806      946.94694      1715.7197      10843.838     -1740.1387      303.18219      515.46556      140469.14      0.92341521    -7779.5018      947.42344      15397.086    
   1700000   8962.9944     -7521.2709      1874.928      -6145.404       4262.6563      3058.2671      962.24714      1746.9034      10724.667     -1761.673       299.85029     -241.45207      140588.33      0.9226323     -7762.8442      949.12419      15415.132    
   1702000   8842.2239     -7570.9971      1861.7046     -6145.3289      4341.1514      3051.5962      957.06624      1683.7871      10663.244     -1821.0203      298.13297     -855.31686      140576.56      0.92270957    -7832.9545      951.93776      15433.378    
   1704000   8913.4234     -7582.3986      1857.9295     -6145.186       4400.6183      3105.4788      965.22145      1659.1392      10652.621     -1739.1973      297.83594      176.71772      140058.11      0.92612512    -7840.79        947.5631       15451.59     
   1706000   8593.1774     -7616.2792      1885.1715     -6142.2681      4293.3322      3018.5507      949.67378      1631.9659      10573.031     -1979.8532      295.61069      1226.534       140028.11      0.92632358    -7847.6508      950.73329      15469.775    
   1708000   8916.9524     -7541.4368      1882.6792     -6144.9873      4289.061       3005.9686      923.80739      1753.3326      10748.528     -1831.5753      300.5174      -313.97788      140944.38      0.92030158    -7777.3589      954.63293      15488.122    
   1710000   8889.6324     -7510.4151      1836.2789     -6143.3751      4339.5315      3057.4932      962.55491      1642.3531      10705.211     -1815.5785      299.30631      862.84158      141759.31      0.91501107    -7787.6023      959.28469      15506.17     
   1712000   8857.6277     -7554.982       1854.3237     -6144.9962      4309.7635      3095.4906      940.66017      1696.9354      10660.433     -1802.8048      298.05436     -40.201268      140722.6       0.921752      -7819.7369      959.4375       15524.418    
   1714000   9183.9706     -7541.0205      1829.9128     -6145.9269      4498.1715      3063.9266      919.78041      1749.2466      10809.88      -1625.9096      302.23275      24.570272      140627.31      0.92237656    -7826.9441      959.47508      15542.653    
   1716000   8826.7503     -7489.3656      1850.4983     -6145.8935      4431.6302      2938.4717      988.8885       1660.8149      10591.706     -1764.9555      296.13283     -669.40718      140551.3       0.92287538    -7758.8392      962.84265      15560.761    
   1718000   9084.142      -7494.7168      1903.8781     -6143.6829      4381.2848      3069.6187      928.66464      1684.3879      10754.708     -1670.5655      300.69018      511.13363      142244.52      0.91188987    -7709.6085      973.66452      15578.637    
   1720000   9046.8733     -7492.5925      1821.6588     -6144.3854      4364.6373      3026.7422      945.15259      1687.7061      10837.954     -1791.0809      303.01767      445.25285      141342.49      0.91770947    -7784.2601      973.83079      15596.594    
   1722000   8898.2865     -7537.9649      1852.258      -6147.6128      4322.3278      3029.2282      973.82512      1707.2101      10699.015     -1800.7285      299.13308     -543.80205      141190.61      0.91869664    -7803.825       972.66759      15614.386    
   1724000   9056.673      -7485.8664      1839.8846     -6145.878       4410.1913      3068.8927      937.70929      1658.8905      10772.849     -1716.1761      301.1974       269.91082      141253.87      0.91828522    -7763.8299      973.43508      15632.244    
   1726000   8857.0555     -7517.5269      1862.4255     -6145.8362      4291.5894      3040.0715      957.46354      1651.9275      10716.941     -1859.8856      299.63427      808.2882       140855.29      0.92088369    -7776.4386      973.55922      15650.052    
   1728000   8832.3152     -7533.4635      1855.8576     -6143.211       4213.0422      3114.1281      942.794        1650.5284      10732.639     -1900.3242      300.07318     -772.17761      141284.97      0.91808308    -7795.2788      974.21735      15667.962    
   1730000   9124.8739     -7534.0703      1844.2325     -6145.4822      4432.3465      3105.3531      925.99258      1714.952       10781.55      -1656.6759      301.44066      211.02482      140951.16      0.92025733    -7811.3696      972.94226      15685.98     
   1732000   8925.8246     -7562.853       1839.6951     -6145.3906      4347.0822      3055.1089      940.9408       1678.6361      10772.605     -1846.7805      301.19058      172.18872      140685.39      0.92199579    -7838.5707      972.2609       15704.351    
   1734000   8936.7365     -7667.4606      1839.4622     -6144.1369      4341.9836      3073.3167      940.69358      1694.4554      10858.423     -1921.6861      303.58995     -804.41168      138923.11      0.93369157    -7943.8648      967.61293      15722.467    
   1736000   8989.1875     -7619.149       1863.8543     -6144.3009      4390.5016      3117.9298      954.54578      1690.6449      10735.161     -1745.9737      300.14369     -141.00787      140411.35      0.92379523    -7872.1056      974.33157      15740.525    
   1738000   8817.3127     -7519.2354      1846.6242     -6146.4202      4267.5573      3051.6263      945.55328      1689.86        10681.747     -1864.4344      298.65029      112.55682      141238.62      0.91838434    -7787.7737      980.9206       15758.603    
   1740000   9028.1437     -7603.544       1852.8707     -6144.9021      4492.1498      3065.2245      953.17526      1653.9733      10759.196     -1731.0525      300.81568     -312.9953       140199.59      0.92519056    -7865.0536      979.48296      15776.57     
   1742000   8851.1457     -7586.1376      1858.9802     -6145.2764      4293.0245      2971.6131      960.47785      1660.8242      10837.64      -1986.494       303.00888     -589.54134      140007.67      0.92645882    -7846.5273      978.54426      15794.592    
   1744000   8881.8225     -7558.5306      1849.6581     -6145.6491      4371.0525      3044.6683      947.7492       1736.021       10636.853     -1755.0306      297.3951       29.293585      140191.64      0.92524303    -7830.994       979.21407      15812.579    
   1746000   8957.4155     -7570.5197      1847.2769     -6144.5285      4311.0232      3087.4578      934.8597       1684.1723      10807.674     -1850.2583      302.17107      122.92499      140497.14      0.92323115    -7835.5307      978.24856      15830.717    
   1748000   9056.0706     -7578.9884      1877.2206     -6144.3974      4346.13        3121.3876      948.61269      1686.7834      10799.322     -1743.2514      301.93756      750.97082      140717.53      0.92178521    -7811.365       980.03598      15848.493    
   1750000   8907.536      -7592.9444      1848.3374     -6145.5427      4464.0003      2983.8263      934.52772      1686.1841      10729.147     -1821.6112      299.97554     -299.82909      140086.32      0.92593865    -7863.671       979.80733      15866.658    
   1752000   9040.2267     -7479.4953      1882.4859     -6143.1865      4427.6028      2995.1102      955.04075      1673.4116      10729.257     -1689.0306      299.97862     -1221.3583      141757.26      0.9150243     -7710.7593      988.92706      15884.833    
   1754000   8987.5211     -7505.4825      1880.4195     -6144.2787      4306.3         3044.2529      969.21002      1670.8621      10766.238     -1778.7167      301.01256      761.95094      140770.27      0.92143984    -7740.6006      987.56125      15902.989    
   1756000   8887.6088     -7581.2834      1862.1783     -6145.9411      4350.5272      3045.0476      972.53867      1686.2079      10698.333     -1810.7246      299.11402     -555.2757       140290.18      0.92459311    -7832.6126      989.2552       15921.261    
   1758000   8622.7609     -7565.3639      1868.9467     -6144.7276      4325.5722      2938.8095      935.63394      1667.083       10596.807     -1974.0461      296.27545      119.75993      140449.11      0.92354688    -7817.2792      989.93354      15939.447    
   1760000   8984.7587     -7586.045       1838.214      -6147.9031      4414.4487      3012.857       944.99129      1727.6167      10780.579     -1795.8205      301.41353      517.59692      139859.69      0.92743907    -7861.31        987.65737      15957.851    
   1762000   8922.1126     -7455.5562      1848.1677     -6144.9842      4294.5747      3069.5274      924.27217      1693.7031      10692.408     -1770.2952      298.94835      536.86562      141399.37      0.91734026    -7722.9675      994.45929      15976.185    
   1764000   8905.1393     -7510.4136      1824.4752     -6145.8674      4258.9079      3037.6337      942.0566       1676.2019      10822.145     -1917.0057      302.57566     -294.10707      140937.77      0.92034477    -7800.3729      993.98241      15994.44     
   1766000   9236.8372     -7546.8843      1862.6711     -6145.5058      4487.8275      3063.5168      1009.1626      1717.522       10788.527     -1551.69        301.63574     -882.17919      140517.77      0.92309561    -7798.7809      992.18862      16012.808    
   1768000   8826.5494     -7589.7212      1839.6351     -6144.0801      4314.7009      3047.6993      904.28473      1712.1992      10741.831     -1915.2819      300.33018     -118.73803      140171.44      0.92537638    -7868.3118      988.71698      16031.064    
   1770000   8972.3541     -7456.8135      1859.8995     -6143.7615      4331.3524      3080.1507      952.17086      1711.4336      10637.922     -1665.5679      297.42498     -507.40289      142496.18      0.91027937    -7710.9539      1000.6422      16049.144    
   1772000   8851.2231     -7524.0255      1864.5032     -6141.1779      4325.1256      3059.3805      933.74513      1664.6881      10668.984     -1817.761       298.29345      422.17216      141380.74      0.91746119    -7773.5823      1000.4156      16067.089    
   1774000   9059.1287     -7505.0765      1905.5251     -6143.7949      4307.9768      3035.1437      996.35831      1656.87        10806.126     -1746.9974      302.12779     -103.19335      141258.95      0.91825215    -7717.4556      997.65563      16085.218    
   1776000   9041.7986     -7548.1402      1841.8872     -6143.5194      4463.9601      3034.5921      977.68484      1712.7754      10702.559     -1660.76        299.23215     -82.195451      140894.15      0.92062972    -7816.1883      999.84257      16103.256    
   1778000   9174.0221     -7540.3808      1884.3557     -6145.037       4386.196       3068.7679      981.71056      1698.7255      10839.684     -1665.6621      303.06604     -617.75209      141383.34      0.9174443     -7775.1961      1004.7804      16121.407    
   1780000   8799.0139     -7561.7711      1851.6673     -6143.4781      4323.0982      3005.5682      955.83511      1654.4989      10713.595     -1914.5814      299.54073      752.79549      140074.73      0.92601528    -7822.5858      998.79722      16139.532    
   1782000   9089.9131     -7536.7226      1868.0547     -6145.5305      4365.2285      3048.6105      964.30103      1660.2252      10865.746     -1775.8332      303.79471      362.26625      141001.57      0.91992829    -7782.9219      1006.1283      16157.648    
   1784000   9128.267      -7458.3271      1868.9931     -6143.675       4363.8927      3004.718       932.98932      1745.2425      10814.433     -1686.1664      302.36006     -668.02362      141800.9       0.91474267    -7705.4937      1008.8585      16175.675    
   1786000   8780.8169     -7551.0228      1851.7305     -6144.0783      4283.4712      2955.2554      960.33654      1676.595       10748.529     -1967.7125      300.51745      663.65358      140660.98      0.92215581    -7817.4681      1004.5057      16193.749    
   1788000   8845.4825     -7591.1452      1831.9968     -6144.7096      4349.9091      3021.4216      932.06446      1720.1095      10725.836     -1880.3533      299.88296      292.02241      140569.56      0.92275551    -7876.937       1003.5501      16211.927    
   1790000   8896.6059     -7562.0849      1848.7603     -6144.6672      4363.631       3084.9879      950.44645      1713.4924      10642.04      -1745.4341      297.54012      683.87599      140698.04      0.9219129     -7828.6565      1006.2077      16229.944    
   1792000   9023.4814     -7617.9241      1858.5391     -6144.0284      4444.6182      2993.9854      976.48835      1708.3871      10803.416     -1779.9343      302.05201      971.67844      140100.29      0.92584629    -7873.5905      1004.3832      16248.134    
   1794000   8843.3408     -7496.2541      1846.5091     -6143.6106      4326.5309      3003.363       943.49369      1649.6475      10713.661     -1870.3205      299.54257     -96.000772      141844.9       0.91445895    -7765.7812      1015.2266      16266.433    
   1796000   9067.3265     -7537.4589      1867.9154     -6143.6208      4392.5123      3066.6159      952.20035      1688.8028      10780.359     -1713.0329      301.40738     -82.323408      141318.9       0.91786262    -7783.1919      1011.2051      16284.61     
   1798000   8665.8621     -7581.3454      1842.3101     -6144.9668      4261.2201      3081.0141      937.38155      1678.1169      10592.132     -1926.2695      296.14473      471.3908       139470.55      0.93002668    -7857.927       1003.036       16302.71     
   1800000   9318.8907     -7511.9626      1868.4956     -6144.7791      4428.5859      3072.7804      983.88094      1661.4693      10960.42      -1641.5295      306.44169     -583.41034      140844.82      0.92095214    -7764.2052      1011.4198      16320.86     
   1802000   8943.4026     -7518.0327      1840.2005     -6145.1464      4274.4978      3137.7695      939.38586      1761.2644      10653.464     -1710.061       297.85951      125.62577      140884.96      0.92068974    -7794.8884      1014.5823      16338.987    
   1804000   9091.0111     -7523.8089      1851.3984     -6143.4206      4391.7319      3065.7054      964.16917      1699.9391      10785.297     -1694.2856      301.54542      174.47898      141145.17      0.91899238    -7785.5507      1013.1632      16357.217    
   1806000   8931.2911     -7518.0401      1859.1326     -6144.4098      4423.9136      2997.0762      939.03301      1686.9554      10687.63      -1756.3389      298.81477     -9.9816121      140757.2       0.92152543    -7775.2113      1013.8619      16375.369    
   1808000   8942.3031     -7528.7185      1868.7952     -6144.0127      4466.3277      3019.2224      911.19995      1669.9821      10679.507     -1737.2039      298.58766      1188.1753      140890.2       0.92065547    -7776.1109      1014.5421      16393.742    
   1810000   8859.4972     -7504.8195      1861.3662     -6145.61        4327.1681      3006.0436      929.00596      1678.7541      10707.589     -1848.0916      299.37279      289.86339      141443.56      0.91705369    -7757.5505      1016.5419      16412.049    
   1812000   9116.6221     -7542.3649      1876.5558     -6144.887       4350.9185      3077.5782      956.80375      1670.8419      10871.176     -1754.5538      303.94651     -350.3376       141442.5       0.91706053    -7784.3767      1018.0671      16430.292    
   1814000   8828.3885     -7513.1443      1855.9402     -6144.7268      4287.6142      2943.9615      955.42495      1689.6425      10753.676     -1925.2877      300.66135     -727.47897      141059.41      0.91955111    -7773.6707      1017.3517      16448.539    
   1816000   8960.1062     -7554.6391      1866.8243     -6142.4506      4323.1998      3046.8585      965.15281      1668.566       10786.594     -1826.4882      301.58171      534.19879      140812.2       0.92116546    -7802.4715      1016.4424      16466.405    
   1818000   9038.7864     -7542.4551      1842.6912     -6143.1104      4376.0261      3011.3169      961.99117      1690.2596      10842.067     -1803.2805      303.13266      647.05611      140779.44      0.92137984    -7810.6516      1015.0296      16484.312    
   1820000   9167.709      -7519.4701      1875.5116     -6143.0589      4335.4267      3115.9443      938.53547      1689.6807      10875.139     -1707.4302      304.05732     -564.90818      141025.49      0.91977231    -7760.199       1016.1189      16502.497    
   1822000   8920.812      -7649.7876      1830.7923     -6145.203       4374.1684      3067.7975      968.6956       1716.3101      10758.039     -1837.2268      300.78332      549.80457      139438.16      0.93024273    -7937.5717      1010.3807      16520.65     
   1824000   8880.2754     -7620.249       1848.9539     -6143.7378      4373.5471      3089.6115      924.25367      1705.8108      10702.085     -1821.8099      299.21892     -1169.2615      140387.36      0.92395312    -7885.115       1015.003       16538.603    
   1826000   8877.1231     -7619.3475      1846.0005     -6145.0235      4397.0065      3045.2447      912.0587       1695.3734      10745.81      -1868.6872      300.44142      215.40432      140344.32      0.92423644    -7888.6838      1016.2312      16556.571    
   1828000   8910.0391     -7516.8362      1843.6575     -6143.3196      4455.3762      2908.962       950.98188      1730.5818      10680.636     -1770.5964      298.61921     -715.80005      142068.77      0.91301794    -7783.5743      1026.7856      16574.688    
   1830000   8835.1182     -7520.7343      1875.2477     -6143.2673      4365.4065      3033.7448      932.86825      1645.6808      10646.172     -1811.0535      297.65563      417.83622      140749.72      0.92157439    -7761.3197      1020.2922      16592.572    
   1832000   9156.5451     -7590.2103      1862.737      -6143.8252      4456.6244      3112.8363      951.78884      1741.4663      10765.128     -1608.5828      300.98153     -826.66053      140741.35      0.92162922    -7843.3463      1020.7803      16610.582    
   1834000   9276.3434     -7531.3692      1879.8385     -6145.8738      4458.0276      3043.1697      997.04323      1674.5245      10900.983     -1624.6394      304.77989     -141.62001      141156.82      0.91891655    -7763.234       1027.5649      16628.407    
   1836000   9250.4318     -7545.9509      1861.8049     -6144.9425      4417.7123      3087.6354      960.81223      1716.3095      10897.051     -1646.6191      304.66995     -323.30872      140441.49      0.92359702    -7796.4038      1025.2299      16646.176    
   1838000   8819.7657     -7617.9376      1842.3107     -6145.5639      4391.1829      2966.2529      928.42914      1661.3246      10793.767     -1974.0012      301.78224      245.73104      140265.74      0.92475425    -7891.7001      1026.2451      16664.056    
   1840000   8727.7269     -7614.5553      1834.4104     -6144.784       4370.359       3054.2969      960.69493      1706.8495      10560.455     -1832.7285      295.2591      -934.72069      140181.67      0.92530882    -7893.778       1024.8069      16682.146    
   1842000   8821.8496     -7601.925       1848.253      -6144.2384      4316.8097      2999.766       950.57604      1723.7212      10728.887     -1907.0374      299.96827      226.60241      140558.16      0.92283037    -7871.0018      1029.1602      16700.329    
   1844000   8967.2332     -7516.7941      1843.603      -6145.0702      4422.0599      3100.4104      915.7313       1643.5613      10703.732     -1736.4984      299.26495      1078.1203      140943.1       0.92030994    -7791.4866      1030.5148      16718.392    
   1846000   9179.8208     -7573.8082      1877.1896     -6144.6563      4387.9091      3170.4447      965.82091      1721.0895      10775.832     -1596.0107      301.28079     -29.952483      140729.06      0.92170966    -7815.2191      1031.2858      16736.468    
   1848000   8883.42       -7558.0151      1861.9643     -6144.616       4286.8295      3045.514       933.17632      1671.764       10786.803     -1903.383       301.58754      665.03319      140921.18      0.92045313    -7813.1251      1032.6647      16754.577    
   1850000   9055.5043     -7539.0085      1861.7083     -6143.952       4411.8803      3041.2629      961.15275      1677.5569      10784.904     -1729.3994      301.53444     -93.276861      141049.87      0.91961328    -7793.526       1036.2397      16772.852    
   1852000   8957.3854     -7591.9156      1859.1202     -6144.8867      4333.4921      3094.4636      983.52161      1691.4112      10732.179     -1774.7936      300.06031      1711.4867      139911.76      0.92709388    -7847.7195      1033.0366      16790.82     
   1854000   9000.679      -7550.5797      1820.538      -6143.689       4416.3823      3046.1682      962.77923      1695.3668      10753.713     -1753.0343      300.66239      412.58453      140660.28      0.92216041    -7846.1324      1034.4957      16808.978    
   1856000   9109.1013     -7536.6895      1897.0845     -6143.6878      4453.6529      3025.9334      947.75021      1664.4509      10800.607     -1691.5055      301.97348     -1132.5883      141926.04      0.91393617    -7762.0453      1045.76        16827.231    
   1858000   9021.025      -7586.4865      1837.3321     -6145.1091      4440.2815      3049.7688      995.14046      1703.7289      10726.369     -1705.3439      299.89786      509.42328      140343.36      0.92424277    -7863.9102      1037.6036      16845.668    
   1860000   8885.1933     -7531.6512      1842.572      -6145.595       4397.5374      3012.23        997.26932      1642.7493      10670.081     -1784.8881      298.32413     -460.60342      140946.97      0.92028469    -7809.0423      1040.1174      16863.843    
   1862000   8969.4436     -7533.9797      1907.3529     -6143.4732      4357.4396      3055.9675      915.29791      1662.2242      10748.614     -1779.1708      300.51983      121.21616      141295.41      0.91801525    -7746.4482      1042.4377      16881.968    
   1864000   8906.0166     -7428.8556      1838.2726     -6144.5186      4314.8112      2973.6859      939.46457      1709.8745      10703.282     -1797.2653      299.25238      1751.4072      142017.9       0.91334502    -7702.5144      1044.04        16899.961    
   1866000   9156.9803     -7558.9781      1858.801      -6143.9344      4454.6478      3030.371       975.64081      1690.1511      10850.281     -1693.3009      303.36232      56.113766      140527.29      0.9230331     -7813.024       1038.1572      16917.834    
   1868000   9043.7149     -7558.2358      1860.103      -6145.187       4396.2679      3062.4283      970.66547      1724.8921      10732.781     -1689.0659      300.07714     -170.36974      140328.96      0.92433764    -7815.6688      1041.6613      16935.789    
   1870000   8989.4011     -7465.9781      1881.7682     -6143.9503      4431.2437      3071.2413      937.32472      1643.3707      10634.381     -1644.9798      297.32598     -40.63608       142496.47      0.91027757    -7700.2284      1055.1865      16953.832    
   1872000   9003.2033     -7526.7669      1846.8846     -6144.1477      4427.3729      3032.9104      934.77286      1712.8613      10719.316     -1716.1125      299.70067     -737.27142      140094.33      0.92588571    -7794.9815      1042.4574      16972.068    
   1874000   9106.0218     -7415.8635      1861.9795     -6143.9918      4414.2015      3036.3538      973.80712      1687.2797      10692.256     -1586.2337      298.94409      371.69453      142281.89      0.91165038    -7666.546       1051.7226      16990.256    
   1876000   8946.3104     -7567.2599      1841.5868     -6144.7271      4430.9364      3041.5597      939.35481      1695.7494      10709.11      -1762.7999      299.41533      341.21927      140322.63      0.92437932    -7846.144       1042.3362      17008.643    
   1878000   8891.1912     -7587.4771      1876.6955     -6145.2581      4466.7431      3077.0809      974.35419      1670.6332      10558.419     -1667.2283      295.20218     -415.64405      140251.56      0.92484774    -7833.7781      1043.6576      17026.995    
   1880000   8912.3461     -7630.3558      1831.9415     -6143.9363      4392.1527      3076.5352      989.42435      1646.8437      10749.741     -1837.3947      300.55132      211.67833      138721.1       0.93505123    -7912.5805      1038.5338      17045.208    
   1882000   8874.9092     -7584.7774      1844.7693     -6144.5237      4303.6511      3047.8856      972.31479      1640.8114      10794.778     -1919.8689      301.81051      649.11929      140309.51      0.92446579    -7856.5476      1043.939       17063.511    
   1884000   8851.942      -7595.5489      1861.9891     -6143.935       4348.0361      3006.3218      962.45645      1689.0656      10723.557     -1871.615       299.81925      568.30066      140158.19      0.92546383    -7846.0582      1044.2111      17081.698    
   1886000   8996.9015     -7558.7059      1837.5494     -6142.4167      4396.8275      3053.3419      981.69597      1654.4579      10774.151     -1777.2499      301.23381     -40.794811      140683.98      0.92200501    -7832.849       1048.0796      17099.788    
   1888000   8957.3303     -7529.243       1842.4236     -6144.6896      4443.8256      3012.9599      953.26085      1671.1936      10707.599     -1750.2691      299.37309     -151.75211      141203.89      0.91861025    -7807.2172      1052.083       17118.089    
   1890000   9033.379      -7430.9129      1880.2321     -6144.4513      4334.6572      3100.6283      932.16049      1647.0256      10714.04      -1680.6606      299.55315     -847.7431       142305.68      0.91149793    -7672.1503      1056.0659      17136.288    
   1892000   9111.1265     -7524.1493      1878.0599     -6144.4899      4386.0931      3021.0757      934.38042      1670.8501      10889.307     -1778.18        304.45343      502.70496      141086.87      0.91937212    -7761.89        1049.8051      17154.391    
   1894000   9110.65       -7544.1847      1901.0997     -6145.3427      4488.5608      3088.5138      933.6221       1731.959       10656.422     -1545.7721      297.94222     -253.43079      140517.12      0.9230999     -7761.8535      1045.0352      17172.594    
   1896000   8881.9466     -7528.8794      1877.897      -6145.195       4289.1299      3132.517       958.91887      1697.6671      10599.891     -1717.9445      296.36168     -682.99004      141279.43      0.91811905    -7771.5626      1053.3332      17190.916    
   1898000   8795.4152     -7663.9052      1827.9193     -6143.3878      4460.4876      2963.0925      923.00899      1694.2002      10734         -1938.5844      300.11121     -386.31097      139202.92      0.93181477    -7953.0335      1044.5074      17209.109    
   1900000   9011.1794     -7521.2738      1887.3855     -6145.2764      4410.0643      3026.2762      951.10488      1629.3325      10773.566     -1762.3869      301.21745      358.00704      140467.23      0.92342773    -7752.7067      1052.721       17227.385    
   1902000   9021.4115     -7549.1601      1837.4349     -6145.3735      4406.0497      3022.4669      926.62229      1646.1994      10877.172     -1855.7605      304.11416     -52.598349      140668.52      0.92210639    -7830.398       1056.1115      17245.718    
   1904000   8835.8603     -7641.6985      1865.7019     -6144.5167      4354.5768      3016.6235      977.52609      1696.6897      10710.958     -1875.0973      299.46698      650.45111      139758.8       0.92810853    -7891.1132      1053.5154      17263.879    
   1906000   8837.6142     -7592.0236      1856.7233     -6145.0851      4330.4242      2982.9085      953.34031      1699.628       10751.699     -1914.0844      300.60606      521.55016      139474.55      0.93000005    -7853.4479      1052.7975      17282.084    
   1908000   8951.5094     -7546.1553      1885.7737     -6143.0027      4321.1291      3045.9217      901.31589      1698.2931      10788.234     -1836.7244      301.62754     -9.6495941      140885.24      0.92068789    -7774.2111      1061.4134      17300.321    
   1910000   8925.6039     -7521.6206      1863.6111     -6144.989       4377.1176      3062.9308      938.42772      1639.1088      10711.018     -1785.4136      299.46866     -690.2907       141259.14      0.91825092    -7774.4169      1065.6495      17318.374    
   1912000   9262.9274     -7526.6488      1889.6158     -6145.6562      4417.3413      3069.1199      962.42497      1687.5037      10909.227     -1646.2994      305.01038      203.68446      141764.01      0.91498075    -7753.5333      1069.7448      17336.479    
   1914000   9025.2116     -7522.0233      1873.8258     -6145.4817      4377.533       3065.1824      916.36647      1692.4792      10767.33      -1742.1181      301.04309     -488.04144      141427.38      0.9171586     -7768.8404      1067.6344      17354.59     
   1916000   8773.0765     -7574.5936      1821.1303     -6146.428       4382.6928      3036.8355      898.52853      1648.7544      10706.157     -1933.0801      299.33275      187.02056      140437.12      0.92362572    -7871.656       1061.5704      17372.708    
   1918000   8810.2334     -7620.6102      1847.3257     -6145.3814      4372.219       3099.4493      977.07778      1639.4076      10640.746     -1830.5121      297.50393     -54.389704      139091.38      0.93256204    -7894.9218      1055.0578      17390.915    
   1920000   9090.6025     -7537.8979      1872.1468     -6144.6312      4381.9529      3078.1719      949.74342      1662.0228      10829.094     -1738.4913      302.76994      449.10568      141057.26      0.91956515    -7783.4737      1068.9902      17409.037    
   1922000   8799.5391     -7580.663       1882.9752     -6144.4908      4329.3704      3066.6106      920.34571      1668.1786      10657.212     -1857.6733      297.96432      328.02262      140409.01      0.92381066    -7813.7068      1066.6724      17427.189    
   1924000   9024.7748     -7525.086       1857.2028     -6142.1223      4390.6471      3053.8888      976.52578      1690.8466      10722.872     -1698.0973      299.8001       544.95751      140660.53      0.92215872    -7779.8462      1069.4969      17445.037    
   1926000   8863.5353     -7534.8445      1856.1477     -6141.6445      4301.267       3047.5314      956.77646      1649.4691      10728.833     -1865.2973      299.96675     -14.63374       140823.81      0.92108951    -7792.6582      1067.2461      17462.865    
   1928000   8850.7033     -7579.634       1873.5133     -6144.0292      4329.6171      3025.5364      933.18243      1694.2886      10718.229     -1867.5254      299.67027      147.64847      140176.82      0.92534082    -7825.3098      1068.1754      17480.789    
   1930000   9166.2556     -7513.2438      1867.681      -6143.6394      4445.7231      3087.8943      966.41114      1700.5161      10754.913     -1588.6575      300.69593     -367.46903      141379.62      0.91746843    -7763.4344      1077.4063      17498.797    
   1932000   8916.2081     -7492.4524      1853.4081     -6143.6994      4357.9669      3004.9772      902.48823      1666.1889      10767.33      -1851.1224      301.04311     -410.12311      141880.43      0.91422996    -7755.4701      1079.2913      17516.732    
   1934000   9152.9647     -7533.1042      1846.3837     -6145.7399      4473.5964      3145.4623      954.40615      1699.0645      10712.896     -1559.9311      299.52117      647.96358      140976.19      0.92009391    -7800.9429      1074.9764      17534.664    
   1936000   8923.4951     -7598.8014      1879.4371     -6144.4331      4441.2624      3083.4767      923.24303      1654.0969      10685.214     -1761.7184      298.7472      -431.60068      140451.56      0.92353077    -7838.9243      1070.9414      17552.734    
   1938000   8781.2356     -7662.7146      1827.0815     -6144.6346      4322.6894      3023.2333      967.59171      1735.7138      10712.275     -1931.0395      299.50382     -129.91665      139633.42      0.92894191    -7949.4444      1066.5026      17570.833    
   1940000   8975.5218     -7554.3369      1835.8277     -6144.9518      4298.4501      3088.1262      936.00844      1724.923       10791.475     -1815.9533      301.71817      403.25071      140387.83      0.92395002    -7835.6494      1072.7873      17588.821    
   1942000   8887.266      -7617.0877      1847.9025     -6143.9649      4343.6897      3116.1692      939.24814      1679.8313      10721.478     -1834.2117      299.76111      427.3012       139858.62      0.92744613    -7886.9726      1070.2652      17606.773    
   1944000   8749.7941     -7604.973       1833.4474     -6144.4939      4341.3755      2973.5031      992.60634      1661.995       10696.334     -1946.5395      299.05811     -211.09452      139862.21      0.92742234    -7881.8495      1069.2373      17624.884    
   1946000   9214.8281     -7581.2347      1847.1582     -6143.831       4468.6895      3010.4069      941.91003      1698.9137      10972.816     -1757.9875      306.78825      570.20775      140346.35      0.92422311    -7847.3905      1073.5109      17642.919    
   1948000   9087.6594     -7648.2926      1854.4158     -6146.3573      4446.3111      3153.9842      921.69104      1695.9281      10809.979     -1722.3197      302.23552     -43.874765      139445.78      0.93019191    -7910.7206      1068.9267      17660.969    
   1950000   8948.5084     -7607.9902      1825.3906     -6144.1846      4347.1903      3084.1431      996.7539       1665.9436      10781.262     -1832.7534      301.43261      401.42804      140191.74      0.92524239    -7894.859       1069.6001      17679.205    
   1952000   8918.4016     -7530.3199      1851.4086     -6144.3175      4330.017       3017.2777      965.46143      1682.1156      10746.759     -1828.3572      300.46794     -306.68875      141211.35      0.91856169    -7791.7062      1077.728       17697.324    
   1954000   9054.243      -7522.5195      1894.16       -6144.753       4424.7392      3019.2402      959.23565      1644.2771      10779.863     -1725.6204      301.39351      110.3635       141625.06      0.91587842    -7745.5418      1081.2589      17715.497    
   1956000   8848.4685     -7594.6304      1845.2914     -6146.3627      4338.5369      3117.9664      962.86221      1705.4509      10619.354     -1770.8853      296.90584      1892.4475      140061.14      0.92610514    -7866.8643      1075.5195      17733.539    
   1958000   8905.1996     -7500.3718      1845.0524     -6145.6421      4286.6163      3041.099       990.4686       1693.1638      10694.813     -1789.6137      299.0156      -65.777565      140914.93      0.92049391    -7764.5067      1080.768       17751.505    
   1960000   8899.6579     -7542.1385      1837.2105     -6144.4451      4329.7758      3044.7206      953.60861      1682.3462      10738.58      -1838.9218      300.23927      456.19413      140757.6       0.92152279    -7818.5282      1079.0134      17769.575    
   1962000   8764.3322     -7608.8566      1819.9869     -6145.3188      4295.059       3027.3484      960.45614      1659.3646      10756.293     -1991.9605      300.7345      -20.593889      140319.33      0.92440106    -7909.7093      1076.7549      17787.743    
   1964000   9079.8326     -7553.0028      1862.7857     -6144.4039      4355.2933      3034.2231      934.82411      1668.1068      10922.006     -1842.1736      305.36768     -50.077093      141201.81      0.91862379    -7808.8578      1085.3615      17805.884    
   1966000   8900.0066     -7526.1254      1844.3016     -6144.632       4374.0347      3064.4739      922.25464      1632.9963      10732.703     -1832.6964      300.07496      158.11845      141088.29      0.91936287    -7801.4982      1083.7059      17824.255    
   1968000   9147.0204     -7598.0823      1842.2043     -6145.2941      4407.6521      3090.0932      962.95887      1711.8162      10875.672     -1728.6517      304.07222     -414.78071      140417.26      0.92375635    -7871.31        1077.9743      17842.537    
   1970000   9000.5247     -7539.0157      1872.9081     -6144.4083      4301.8886      3022.9687      942.79015      1695.1713      10848.222     -1847.6971      303.30474     -186.74392      141047.96      0.91962578    -7780.2743      1084.061       17860.659    
   1972000   9094.4949     -7566.3883      1846.3404     -6143.72        4455.8081      3071.5707      981.9922       1706.9428      10741.949     -1647.4541      300.33347      96.888398      141188.4       0.91871101    -7835.5081      1084.3223      17879.035    
   1974000   9029.778      -7503.0461      1851.6612     -6144.5737      4353.2339      3015.9821      937.67745      1686.9455      10831.898     -1802.1197      302.84834     -937.57216      140924.33      0.92043255    -7769.9242      1083.254       17897.096    
   1976000   8869.2172     -7544.8405      1856.4022     -6143.8192      4400.0218      3029.9493      952.21223      1664.5883      10654.703     -1785.4859      297.89417      637.41978      139846.49      0.92752659    -7804.1689      1083.0693      17915.151    
   1978000   8950.235      -7528.2909      1849.0861     -6143.6625      4312.322       3079.3575      956.38417      1641.0173      10784.021     -1833.7863      301.50977      616.35015      141421.53      0.91719654    -7795.043       1093.2689      17933.195    
   1980000   9000.6924     -7521.2066      1849.093      -6146.3175      4520.0403      2949.0829      939.43192      1650.6617      10759.907     -1759.2142      300.83554     -182.46323      141015.48      0.9198376     -7786.599       1092.9905      17951.352    
   1982000   8992.7967     -7545.9063      1886.7804     -6143.8983      4368.0258      3054.6606      957.78546      1650.9206      10764.429     -1771.6318      300.96197     -390.60416      140526.33      0.92303941    -7777.6334      1090.5987      17969.464    
   1984000   9020.2281     -7601.1309      1830.4556     -6144.8492      4501.2832      3070.2913      955.29954      1701.3743      10707.504     -1687.2762      299.37043     -520.82899      140428.18      0.92368454    -7886.7284      1090.1348      17987.566    
   1986000   9063.0759     -7589.6005      1850.9273     -6144.7385      4414.0381      3088.5522      952.6651       1743.4884      10747.744     -1684.6679      300.49548     -279.83048      140636.8       0.92231435    -7855.2945      1096.3253      18005.856    
   1988000   8989.3641     -7543.4049      1848.7148     -6146.6698      4407.3745      2979.9643      972.5611       1649.3267      10821.497     -1832.1332      302.55755     -758.49279      140621.69      0.92241345    -7814.3892      1094.9725      18024.099    
   1990000   9058.7609     -7578.1791      1854.6329     -6141.9606      4383.6862      3072.5015      964.71534      1689.2427      10814.122     -1755.3611      302.35135      146.22496      140398.04      0.92388283    -7837.4354      1093.5941      18042.219    
   1992000   9139.1969     -7487.6853      1880.1934     -6145           4341.3071      3115.0267      956.51008      1701.5346      10777.31      -1638.1135      301.32214      468.93224      141682.24      0.91550879    -7724.0091      1101.414       18060.251    
   1994000   9016.3731     -7520.8022      1861.0014     -6146.1124      4365.762       3025.4436      1001.5563      1688.6962      10740.828     -1724.4551      300.30213      61.923008      140748.88      0.9215799     -7774.5457      1098.9886      18078.206    
   1996000   9108.0052     -7469.2478      1870.7424     -6144.3111      4408.4837      3079.7671      947.59044      1681.148       10733.832     -1625.8273      300.10654      1354.3243      141753.78      0.91504677    -7712.2823      1106.3265      18096.285    
   1998000   9059.5612     -7596.075       1856.517      -6143.7947      4374.951       3094.9491      918.84899      1729.6814      10824.483     -1764.9222      302.64104      352.97684      140267.51      0.92474256    -7853.4161      1100.1884      18114.243    
   2000000   8701.0722     -7571.0187      1807.5704     -6144.9254      4456.6519      2975.991       933.62883      1656.7896      10586.385     -1885.3123      295.98405      229.70665      139954.65      0.92680974    -7877.0379      1103.8581      18132.339    
   2002000   8813.3625     -7590.9434      1852.2671     -6143.3019      4332.3407      3071.1462      880.75513      1644.3468      10766.752     -1953.3894      301.02693     -94.702637      140095.73      0.92587643    -7855.1405      1104.6589      18150.544    
   2004000   8912.5786     -7529.965       1853.1527     -6146.7208      4369.3135      3049.8745      928.84839      1633.2553      10754.82      -1842.2413      300.69333     -824.21594      141077.78      0.91943137    -7799.6434      1109.7677      18168.602    
   2006000   8885.5668     -7549.7119      1881.0464     -6145.6287      4337.0512      3037.2621      961.44202      1718.3297      10645.776     -1760.2092      297.64457      227.03852      141552.65      0.91634692    -7786.5837      1115.5692      18186.844    
   2008000   9128.9448     -7570.9827      1870.0921     -6144.132       4388.9418      3015.7845      951.00375      1696.5929      10921.644     -1792.6996      305.35756      37.208594      141022.11      0.91979433    -7811.8187      1111.9375      18204.984    
   2010000   8812.1743     -7537.2243      1856.8247     -6143.978       4375.2022      3054.6921      960.79238      1644.6277      10601.238     -1789.0632      296.39933     -378.93148      141135.25      0.919057      -7794.4904      1115.0622      18223.214    
   2012000   8951.7855     -7562.6982      1881.8995     -6143.5721      4364.3809      3015.7557      944.60428      1697.1188      10754.297     -1802.5111      300.67869      316.47031      140501.34      0.92320356    -7799.1081      1109.6942      18241.614    
   2014000   8926.1539     -7562.4075      1809.4996     -6142.9551      4454.3788      3005.6412      933.63497      1700.1163      10728.246     -1802.0916      299.95033      210.49565      140681.58      0.92202077    -7866.5486      1111.8338      18259.995    
   2016000   8949.3434     -7560.9024      1853.6682     -6144.5185      4428.1716      2968.0719      923.34212      1686.7634      10794.747     -1845.4036      301.80964      584.50094      140493.74      0.92325351    -7818.911       1114.9313      18278.631    
   2018000   8924.6264     -7539.8152      1843.2342     -6145.2967      4419.2975      2978.0328      942.11093      1742.6172      10684.446     -1759.8192      298.72574      519.89428      139668.41      0.9287092     -7813.5333      1109.522       18296.85     
   2020000   9156.7614     -7507.3493      1849.1449     -6144.8373      4500.9144      3065.8648      958.52587      1644.2011      10790.297     -1633.5356      301.68523     -361.0778       142112.75      0.9127354     -7773.9539      1123.2824      18315.203    
   2022000   8882.2947     -7563.0458      1841.3568     -6145.556       4458.5098      3033.1242      889.05049      1673.0282      10695.827     -1813.5324      299.04395      353.71174      140401.21      0.92386194    -7840.1729      1113.6012      18333.511    
   2024000   9111.9053     -7547.7178      1861.6428     -6143.4115      4475.9981      3065.871       911.84777      1712.2823      10775.393     -1663.4874      301.26852      402.60024      141039.56      0.9196805     -7799.4083      1114.9256      18351.846    
   2026000   8944.1683     -7595.1795      1813.2709     -6143.8433      4415.1565      3113.6841      940.34454      1702.3506      10698.384     -1754.2162      299.11545     -34.696756      139678.38      0.92864294    -7898.2388      1111.6836      18370.08     
   2028000   8936.2832     -7625.0535      1850.5478     -6146.1501      4411.8378      3061.0759      962.47914      1707.6318      10713.914     -1777.6311      299.54965      145.46143      139822.84      0.92768349    -7892.8823      1113.858       18388.303    
   2030000   8925.6386     -7612.65        1852.0429     -6144.6464      4366.8556      3146.5976      937.49265      1696.9733      10682.973     -1757.3342      298.68456      209.60166      140512.06      0.92313313    -7880.9914      1121.0697      18406.431    
   2032000   8879.3447     -7573.1693      1872.611      -6144.9696      4326.0743      3043.6929      997.04723      1662.5006      10695.558     -1816.2129      299.03641     -437.67469      140174.21      0.9253581     -7818.8749      1116.714       18424.592    
   2034000   9211.9615     -7607.0238      1870.8484     -6145.1756      4401.3778      3210.2132      960.29998      1727.6172      10793.804     -1581.8427      301.78328      328.99216      139620.3       0.9290292     -7852.8708      1111.5901      18442.641    
   2036000   9096.431      -7533.0837      1841.1665     -6145.5731      4419.395       3044.5283      1019.4424      1695.7209      10754.835     -1658.4038      300.69374      646.23241      140521.96      0.92306807    -7807.1357      1119.2037      18460.701    
   2038000   9182.9226     -7580.385       1857.312      -6144.9759      4475.7507      3144.0015      937.05584      1693.9876      10800.176     -1617.2532      301.96143     -277.34883      140380.97      0.92399513    -7839.148       1120.2648      18478.663    
   2040000   8917.1093     -7593.265       1846.7845     -6144.5603      4341.4018      3096.8823      948.22638      1647.8481      10773.791     -1856.6822      301.22375      336.75217      140423.37      0.92371619    -7861.1006      1120.2458      18496.576    
   2042000   9039.1072     -7520.0103      1872.5758     -6143.8631      4470.9331      3004.2473      916.58163      1684.1871      10754.456     -1715.3484      300.68314     -146.6669       141001.67      0.91992765    -7760.848       1125.5577      18514.579    
   2044000   9095.8492     -7480.5563      1837.8159     -6144.6266      4454.6964      2932.6982      972.68367      1726.1594      10796.978     -1701.1292      301.87203      229.04848      141302.08      0.91797188    -7756.1992      1123.9559      18532.553    
   2046000   8864.3776     -7586.9772      1831.5471     -6145.4756      4292.8236      3012.9843      928.75947      1694.015       10836.701     -1972.3233      302.98263     -825.1068       140219.18      0.9250613     -7874.6587      1121.944       18550.621    
   2048000   8686.6141     -7617.7179      1831.8198     -6145.7829      4225.965       3019.5982      982.21649      1683.0148      10707.501     -2020.8865      299.37033      210.93107      139556.03      0.92945703    -7901.9938      1119.9584      18568.782    
   2050000   9102.6053     -7487.0292      1866.6665     -6144.4671      4269.8986      3042.0906      974.35974      1680.8847      10900.202     -1797.5963      304.75804      611.1089       141817.73      0.91463416    -7737.6997      1132.8878      18586.819    
   2052000   8907.0626     -7545.9121      1864.0943     -6143.1484      4362.5508      3045.9213      960.75163      1673.7078      10689.097     -1782.0347      298.85579      256.66363      140829.86      0.92104999    -7797.8425      1132.0848      18605.115    
   2054000   8800.6719     -7575.4401      1870.1048     -6144.5599      4396.7524      3045.8216      925.93422      1714.6358      10567.423     -1766.7512      295.45391     -754.26201      139961.23      0.92676621    -7823.6184      1127.1373      18623.126    
   2056000   9045.2209     -7533.6246      1848.032      -6144.3105      4376.6729      3011.5721      964.1213       1690.1803      10832.577     -1787.3565      302.86734      609.49655      140707.59      0.92185035    -7802.5181      1131.671       18641.087    
   2058000   9069.2958     -7574.8468      1867.4929     -6145.1761      4421.1689      3025.6274      996.01037      1690.301       10788.718     -1719.4224      301.64109     -173.01558      140404.34      0.92384137    -7817.5505      1132.5802      18659.202    
   2060000   8755.2584     -7609.012       1864.3768     -6143.7826      4232.2963      3094.6761      957.5907       1696.5989      10662.514     -1907.2558      298.11255      91.411482      140010.02      0.92644328    -7861.0654      1132.5078      18677.203    
   2062000   9187.7106     -7516.8956      1882.0954     -6145.2704      4390.8137      3022.7022      951.06394      1702.7071      10900.494     -1712.7837      304.76623     -352.49676      141159.1       0.91890169    -7747.5538      1138.0788      18695.245    
   2064000   8981.4878     -7517.7367      1868.6776     -6143.8783      4364.5608      3054.1391      978.96231      1625.6125      10751.15      -1769.6626      300.59073      681.1219       141280.05      0.918115      -7767.4901      1141.336       18713.478    
   2066000   8973.5006     -7588.0406      1838.3581     -6145.3504      4391.7106      3088.199       949.30657      1647.5257      10791.792     -1818.291       301.72701     -609.43635      139890.4       0.92723542    -7866.9418      1134.3265      18731.801    
   2068000   8969.7525     -7536.14        1889.1357     -6146.2518      4422.2648      2959.5322      982.54508      1672.5867      10726.08      -1756.3272      299.88978     -233.56187      141542.38      0.91641343    -7767.2439      1144.8425      18749.986    
   2070000   9011.7577     -7575.4461      1867.5373     -6145.6672      4434.1927      3068.1399      903.10359      1679.3079      10780.59      -1768.8319      301.41382      144.15778      141085.06      0.91938395    -7823.8227      1141.9371      18768.057    
   2072000   8880.0253     -7600.4522      1854.1149     -6145.2171      4394.643       3095.0971      943.19439      1647.5814      10691.064     -1811.0385      298.91077      11.547785      139977.62      0.92665771    -7862.8143      1138.9852      18786.312    
   2074000   8949.0045     -7558.8696      1870.5499     -6142.2766      4425.3345      3087.1194      907.95355      1654.5414      10704.652     -1755.6475      299.29068     -544.26041      140844.85      0.92095194    -7807.531       1143.8883      18804.739    
   2076000   8679.6583     -7509.7667      1895.0151     -6146.2788      4263.3503      3003.0923      956.77382      1646.2434      10571.229     -1891.5706      295.56032     -231.82957      141347.77      0.91767515    -7735.2195      1151.8508      18822.817    
   2078000   8903.2135     -7514.666       1853.9648     -6145.5219      4384.7741      3044.1888      950.66028      1683.134       10646.679     -1743.4659      297.66983     -378.07823      141417.65      0.91722168    -7781.0709      1149.9396      18841.149    
   2080000   9155.3268     -7523.8836      1882.4382     -6144.1515      4419.5281      3128.7362      931.72693      1645.6179      10815.314     -1659.9877      302.38469      34.989516      142161.25      0.91242402    -7756.7878      1156.2108      18859.781    
   2082000   8712.7241     -7635.1764      1847.1403     -6145.9961      4361.5948      3005.2843      947.11143      1642.5063      10690.259     -1977.5354      298.88828      1042.1567      140150.67      0.9255135     -7905.6824      1147.2476      18877.922    
   2084000   8791.8896     -7579.1106      1870.9831     -6143.9222      4284.1847      2999.2224      952.75428      1682.3991      10725.379     -1933.4892      299.87019     -263.8551       140489.62      0.92328055    -7826.6567      1150.756       18896.308    
   2086000   8868.6474     -7504.5203      1850.205      -6144.5191      4381.1005      3068.4304      902.14216      1670.1798      10645.629     -1776.9816      297.64046      94.988378      141694.4       0.91543021    -7768.9534      1152.2579      18914.479    
   2088000   8953.1251     -7542.9602      1826.3632     -6146.3669      4418.1474      3103.0984      901.09091      1668.8522      10724.9       -1771.7749      299.8568      -239.22142      141415.45      0.91723595    -7839.2808      1151.5407      18932.628    
   2090000   8867.7101     -7538.9155      1837.6315     -6143.9079      4407.7248      3072.0904      1016.8608      1694.8823      10521.344     -1653.6337      294.16558     -239.18716      140789.14      0.92131636    -7817.3182      1149.0757      18950.807    
   2092000   8852.2611     -7583.5093      1834.7906     -6145.6052      4392.5359      3084.7437      910.91817      1726.8046      10631.583     -1779.3216      297.24775      1006.5663      140128.12      0.92566246    -7860.4157      1146.1746      18968.94     
   2094000   8795.3309     -7612.3681      1825.3632     -6144.733       4439.6931      3025.6551      954.42415      1610.9282      10696.368     -1901.0374      299.05908      390.87979      139470.88      0.93002452    -7904.8161      1141.4532      18986.886    
   2096000   9084.4468     -7564.9068      1820.6135     -6144.9219      4438.3528      3020.4562      971.55488      1695.5797      10847.718     -1763.2716      303.29067      540.36794      140176.54      0.92534267    -7858.4727      1148.9382      19004.946    
   2098000   9187.1446     -7604.9221      1833.8068     -6144.804       4430.699       3112.3648      970.74814      1701.4812      10887.771     -1700.6261      304.41049     -111.94802      140178         0.92533303    -7887.7015      1150.925       19023.047    
   2100000   9038.131      -7621.9692      1843.6725     -6143.2863      4397.7994      3084.114       933.50893      1707.861       10836.431     -1798.2996      302.97507      0.38447875     139762.73      0.92808243    -7892.2464      1149.8746      19040.994    
   2102000   9027.1891     -7646.2378      1863.9336     -6142.0596      4454.3158      3069.3975      923.69961      1632.3238      10871.816     -1844.6272      303.96442      227.00726      139556.88      0.92945142    -7900.881       1151.3924      19059.008    
   2104000   8738.1487     -7574.4454      1860.0679     -6145.0346      4328.7917      3010.2221      926.92435      1677.147       10654.476     -1916.327       297.88781      775.52543      140156.59      0.92547439    -7832.0222      1156.6109      19077.293    
   2106000   9209.0779     -7516.5512      1853.7729     -6142.7177      4486.4706      3004.3468      977.85461      1707.4562      10838.446     -1629.3678      303.03141      158.17654      141038.37      0.91968828    -7778.6115      1161.5829      19095.458    
   2108000   9075.6094     -7535.1343      1828.7529     -6145.6611      4407.6647      3008.6931      935.8667       1704.5731      10870.854     -1795.2449      303.93752      38.043263      140154.13      0.92549068    -7825.9142      1158.8774      19113.743    
   2110000   8685.1463     -7620.861       1812.8869     -6145.1025      4381.1842      3014.2322      959.25271      1686.0408      10597.513     -1912.3668      296.2952       444.2754       139608.81      0.92910568    -7926.2368      1155.2812      19131.873    
   2112000   8809.1679     -7545.3612      1824.8895     -6145.6448      4258.681       3005.4428      955.61112      1663.9592      10791.59      -1982.4224      301.72139      73.478898      140504.37      0.92318368    -7834.7959      1161.1469      19150.079    
   2114000   8946.8098     -7577.5743      1874.0046     -6144.8495      4415.0038      3056.3921      944.28588      1672.4325      10707.115     -1760.3049      299.35954      635.4337       140487.24      0.92329623    -7822.0562      1162.9713      19168.241    
   2116000   9070.9165     -7558.0114      1842.5366     -6144.4358      4397.2105      2998.7891      962.87134      1671.1752      10900.781     -1829.8645      304.77424     -194.75709      140424.5       0.92370876    -7830.4186      1164.8751      19186.425    
   2118000   8787.8308     -7567.081       1866.7953     -6145.0894      4376.6929      2975.8584      947.11043      1649.0805      10684.464     -1896.633       298.72624      280.64604      141570.3       0.91623272    -7813.6832      1173.4052      19204.514    
   2120000   8874.2956     -7538.6146      1875.2661     -6144.7208      4355.0949      2960.4501      1000.7918      1665.2241      10700.804     -1826.5084      299.1831      -290.58417      141086.26      0.9193761     -7773.6577      1168.6315      19222.597    
   2122000   8903.2239     -7616.5246      1839.6722     -6145.4638      4370.0173      3075.9909      955.13378      1747.0829      10677.315     -1774.0914      298.52638      167.34802      139125.66      0.93233225    -7891.3776      1156.8095      19240.791    
   2124000   8799.593      -7561.631       1841.7993     -6145.3949      4354.9245      3020.1821      962.97144      1639.7905      10686.951     -1887.3579      298.79578      786.45791      140170.47      0.92538275    -7834.2337      1164.2626      19259.15     
   2126000   8867.7402     -7559.017       1818.3412     -6145.2113      4394.7117      3050.2917      943.33786      1690.3024      10674.984     -1807.2435      298.46119     -341.52843      140508.98      0.92315334    -7854.5974      1170.3982      19277.304    
   2128000   8924.9626     -7578.9278      1889.5207     -6143.9492      4401.0598      2982.4371      918.19022      1712.1235      10744.508     -1819.5457      300.40502     -249.64618      140638.59      0.9223026     -7812.4252      1171.285       19295.655    
   2130000   8876.5633     -7557.9226      1880.9594     -6144.7203      4346.0033      3027.8961      961.28858      1652.9493      10710.11      -1833.5462      299.44327      641.91429      141041.54      0.9196676     -7794.3066      1171.0451      19313.753    
   2132000   9088.9482     -7515.9015      1893.3675     -6144.3482      4341.6644      2996.3339      970.62071      1721.3492      10825.862     -1736.914       302.67959     -523.21303      141402.79      0.91731808    -7733.9537      1175.5325      19331.697    
   2134000   8952.8449     -7508.9504      1823.1845     -6144.5366      4374.2289      3061.8799      943.52689      1653.0555      10750.456     -1797.6114      300.57132     -97.078529      141118.55      0.91916578    -7801.6016      1174.4092      19349.854    
   2136000   8827.1233     -7537.5022      1833.1276     -6145.2509      4368.3317      3039.6552      932.32234      1678.6445      10657.795     -1830.6717      297.98061     -578.47317      140347.56      0.92421511    -7824.3904      1171.1013      19368.001    
   2138000   9005.3579     -7509.6152      1864.341      -6143.5468      4380.1819      2996.4761      957.56437      1698.2997      10761.657     -1756.2989      300.88448      665.48068      140748.95      0.92157943    -7761.3692      1174.1247      19386.045    
   2140000   8754.5658     -7537.8527      1845.1715     -6141.1644      4293.8127      3021.5459      1003.3406      1690.7329      10578.979     -1824.4134      295.77701      129.27553      141251.4       0.91830125    -7798.5281      1176.5374      19404.197    
   2142000   9025.7633     -7518.1904      1861.1621     -6144.7735      4408.3587      2986.197       987.12699      1668.8338      10777.049     -1751.2853      301.31482     -1280.887       141304.73      0.9179547     -7772.8871      1180.0295      19422.302    
   2144000   9078.963      -7592.518       1866.1929     -6144.5863      4419.2323      3078.3856      946.99556      1690.0089      10815.252     -1736.2891      302.38295     -102.16693      140623.72      0.92240015    -7840.8944      1179.3815      19440.399    
   2146000   9004.6685     -7499.0774      1888.3258     -6141.0891      4442.0839      3029.8074      948.41504      1713.8659      10622.337     -1617.6686      296.98924     -243.94976      142030.12      0.91326643    -7721.2085      1187.9694      19458.428    
   2148000   8906.7188     -7565.9539      1863.0314     -6146.6335      4451.8336      3054.9496      958.94355      1689.1785      10601.369     -1694.6507      296.40301     -399.47247      140730.45      0.92170056    -7821.4689      1182.891       19476.263    
   2150000   8805.9634     -7558.2726      1854.2503     -6145.669       4312.6867      3051.3         904.88442      1657.6569      10729.127     -1923.1633      299.97497      215.05164      140811.9       0.92116744    -7826.2272      1184.8951      19494.166    
   2152000   9015.7743     -7529.5157      1890.6531     -6144.2781      4397.5022      3025.0977      931.47977      1660.1896      10784.646     -1768.8715      301.52723     -368.15796      140995.15      0.91997021    -7758.2186      1188.0953      19512.03     
   2154000   9080.8279     -7437.2444      1854.9308     -6145.3079      4421.1403      3021.6731      931.76574      1690.1391      10743.731     -1662.9034      300.3833      -635.77996      142085.24      0.91291214    -7699.3003      1192.1038      19529.88     
   2156000   9099.843      -7543.8149      1851.0127     -6144.7459      4472.9872      3092.455       962.72019      1677.0077      10732.221     -1632.378       300.06148      114.00999      140455.95      0.92350194    -7809.7459      1185.7662      19547.835    
   2158000   8828.0025     -7552.7417      1838.0312     -6143.7676      4431.518       3047.8699      937.4785       1696.2637      10573.351     -1745.348       295.61964      116.75175      140251.6       0.9248475     -7831.971       1183.4249      19565.79     
   2160000   8966.1859     -7567.4975      1853.1322     -6146.2398      4314.5139      2987.7669      996.31884      1698.8205      10829.371     -1863.1849      302.77769      1.8667259      140027.15      0.92632989    -7828.5045      1188.1075      19583.881    
   2162000   8812.6153     -7556.7325      1878.7883     -6144.4546      4327.1756      2995.4975      950.42026      1636.3682      10725.553     -1912.9372      299.87504      616.4069       140461.79      0.92346352    -7792.7166      1190.8853      19602.101    
   2164000   9032.6496     -7471.3226      1873.3004     -6144.5114      4307.4007      3058.0554      922.91994      1697.5171      10789.29      -1756.6405      301.65707     -291.21709      141759.36      0.91501075    -7719.4566      1203.5407      19620.318    
   2166000   9076.001      -7515.5623      1847.062      -6144.8346      4358.604       3032.2594      975.94182      1699.9861      10822.545     -1746.5437      302.58684      122.12323      142141.86      0.91254846    -7781.6101      1207.983       19638.36     
   2168000   8991.0564     -7522.913       1861.5177     -6144.7134      4453.874       3032.6748      921.1094       1682.8236      10706.683     -1715.627       299.34748     -409.60162      141150.31      0.9189589     -7780.4438      1205.4424      19656.372    
   2170000   9100.9431     -7574.9444      1877.2299     -6144.3815      4358.0608      3034.7079      950.49801      1701.6106      10898.162     -1797.2187      304.70101     -574.43737      140404.96      0.92383728    -7811.7689      1206.0378      19674.444    
   2172000   9207.453      -7453.9109      1839.9515     -6145.3628      4411.9401      3146.5481      961.26276      1742.7271      10704.297     -1496.844       299.28076     -1104.8609      141678.54      0.91553268    -7733.5478      1213.4974      19692.696    
   2174000   9266.4367     -7513.5965      1913.236      -6145.1482      4351.4491      3101.3033      919.76291      1706.7303      10932.7       -1666.2631      305.66666      228.2726       141422.88      0.91718779    -7715.7063      1213.1871      19711.033    
   2176000   8772.9109     -7472.5413      1841.6928     -6144.0061      4329.6586      2997.2224      971.01096      1672.7009      10577.173     -1804.2617      295.72649     -608.38539      141187.66      0.91871579    -7748.1924      1210.522       19729.094    
   2178000   9252.4975     -7524.6639      1894.04       -6144.9981      4406.8625      3066.4005      967.38344      1700.6854      10886.788     -1634.2901      304.383        283.14848      141042.88      0.91965886    -7751.0096      1210.0528      19747.398    
   2180000   9074.8344     -7483.3677      1900.9874     -6144.3491      4359.0129      3050.3858      983.79778      1582.3185      10826.049     -1751.2145      302.68481      589.41662      141435.79      0.91710405    -7700.2665      1216.2183      19765.859    
   2182000   9352.8201     -7425.3131      1900.2432     -6145.5871      4411.4065      3050.7598      936.91411      1725.6264      10898.77      -1545.9502      304.71803     -863.77593      142003.12      0.91344008    -7639.8531      1219.8542      19784.086    
   2184000   9078.7886     -7459.8179      1893.1076     -6143.8548      4456.5157      3016.6923      949.16193      1691.4952      10675.488     -1596.6999      298.4753      -27.042366      141391.38      0.91739214    -7682.9547      1218.5988      19802.313    
   2186000   9235.2259     -7440.8         1898.4874     -6144.8382      4408.421       3067.2572      946.10197      1660.6844      10839.912     -1604.6861      303.07241     -589.67306      142004.45      0.91343147    -7658.4857      1226.9871      19820.479    
   2188000   9045.5362     -7541.5419      1888.5677     -6143.9699      4362.0271      3052.1667      927.1797       1709.016       10792.091     -1746.5545      301.73538      699.85062      141481.27      0.91680925    -7768.7174      1223.265       19838.707    
   2190000   8794.3134     -7572.0254      1838.8254     -6145.6443      4382.8917      3002.5482      916.44943      1638.8527      10732.416     -1938.1024      300.06693      312.08416      140797.37      0.9212625     -7851.1355      1223.5221      19857.121    
   2192000   8767.0133     -7570.927       1843.3645     -6143.5651      4266.2502      3124.9678      966.51178      1671.2182      10609.193     -1842.1796      296.62175      163.69927      140022.96      0.92635764    -7845.7653      1220.0916      19875.25     
   2194000   8878.7556     -7588.9177      1837.6542     -6144.6211      4391.3856      3083.2009      966.92141      1658.9795      10674.153     -1795.3973      298.43796     -241.80673      140969.28      0.92013903    -7868.5803      1225.2439      19893.347    
   2196000   9108.0917     -7618.0512      1840.8482     -6145.9859      4365.5342      3124.2485      952.93733      1745.8193      10842.741     -1734.6496      303.15151     -288.64019      140072.76      0.92602826    -7897.8593      1220.9631      19911.486    
   2198000   9045.0777     -7562.5734      1881.1553     -6143.7626      4352.6062      2989.9884      956.65969      1673.2103      10897.794     -1852.7161      304.69072      286.22496      141094.84      0.9193202     -7796.375       1227.1762      19929.645    
   2200000   8826.6652     -7508.6286      1887.0832     -6142.7779      4304.5148      3038.3942      929.07698      1678.8994      10640.103     -1813.4379      297.48597     -740.34889      141073.56      0.91945887    -7738.7189      1230.7171      19947.781    
   2202000   9117.7608     -7490.2888      1873.0234     -6142.9572      4353.6733      3050.8502      949.92832      1701.6231      10821.908     -1704.1476      302.56905      352.97337      141668.63      0.91559677    -7733.566       1232.4965      19965.892    
   2204000   8800.2166     -7534.6423      1863.1316     -6144.0548      4309.6702      2993.5914      957.67726      1665.8763      10688.967     -1888.7502      298.85214      167.55624      140954.58      0.92023503    -7789.843       1229.1138      19983.996    
   2206000   8959.677      -7527.3626      1880.7002     -6143.307       4421.2074      3020.166       942.81109      1683.2934      10682.169     -1722.4915      298.66207     -364.10611      141069.5       0.91948533    -7763.4545      1227.8508      20001.99     
   2208000   9019.4169     -7491.5624      1869.2359     -6145.1713      4423.7709      3071.7205      946.59551      1693.684       10651.144     -1631.727       297.79465     -897.31528      141243.66      0.91835158    -7743.1172      1229.4349      20019.953    
   2210000   8784.9329     -7625.9551      1817.5118     -6145.4783      4234.6162      3119.0359      971.20975      1715.2962      10698.696     -1913.7635      299.12417      100.80176      139707.84      0.92844709    -7925.0298      1223.29        20037.817    
   2212000   9174.9928     -7515.2933      1874.6432     -6144.0683      4514.8209      3005.1105      923.13655      1733.0415      10783.602     -1608.6089      301.49803      237.43634      141495.18      0.91671911    -7753.0322      1233.9423      20055.719    
   2214000   8975.5347     -7487.9954      1862.4187     -6145.5258      4357.2195      3055.9786      931.12143      1688.2495      10714.068     -1738.5335      299.55395      589.24216      141883.18      0.91421223    -7743.1011      1239.8884      20073.509    
   2216000   9029.6487     -7518.9902      1842.0726     -6145.2081      4341.4589      3028.5405      943.37492      1732.1524      10806.248     -1776.599       302.13119      538.17444      141064.75      0.91951627    -7793.4375      1240.0729      20091.335    
   2218000   9021.7014     -7470.8156      1844.0251     -6145.0658      4371.1029      3053.7201      956.40056      1673.2795      10739.055     -1717.3532      300.25254     -595.76332      141491.41      0.91674355    -7740.701       1241.7146      20109.04     
   2220000   9055.6657     -7529.5003      1875.1868     -6144.6251      4423.2795      3035.7882      988.81101      1706.792       10699.934     -1644.268       299.15876      354.66213      140912.68      0.92050865    -7765.4069      1239.8038      20127.003    
   2222000   8883.0324     -7567.0379      1828.2481     -6144.7364      4383.2411      3043.6757      968.92116      1646.0591      10724.662     -1841.6292      299.85013     -78.924186      139798.9       0.92784236    -7854.8998      1231.919       20145.303    
   2224000   8923.3951     -7531.5472      1877.4536     -6143.3197      4371.1135      2948.8513      943.56707      1638.6268      10818.65      -1895.2546      302.47794     -1134.3952      141560.83      0.91629396    -7770.9995      1243.6638      20163.29     
   2226000   8784.4311     -7588.9982      1849.9446     -6144.3562      4278.597       3071.4929      936.26951      1646.3178      10735.164     -1950.7326      300.14376      1011.9211      140551.37      0.92287497    -7853.6072      1235.0052      20181.459    
   2228000   9053.804      -7532.8814      1854.468      -6142.9774      4383.5068      3050.1624      974.12084      1686.3506      10781.054     -1727.2501      301.42681     -762.78006      141643.1       0.91576178    -7797.2231      1241.6155      20199.661    
   2230000   8998.3914     -7554.8557      1859.8068     -6145.5099      4378.558       3009.2381      961.74787      1715.9398      10773.466     -1775.0751      301.21466      190.10633      140184.12      0.92529266    -7813.6492      1234.6283      20217.657    
   2232000   9124.08       -7522.4409      1860.7191     -6145.1077      4355.4284      3126.3247      974.68421      1681.3438      10793.128     -1669.0483      301.76439     -139.99477      140795.49      0.9212748     -7776.877       1243.1842      20235.709    
   2234000   9255.8169     -7577.9363      1874.0399     -6144.7292      4506.0388      3088.152       986.99341      1680.933       10842.325     -1586.5084      303.13988     -102.34443      140684.66      0.92200056    -7821.9098      1242.631       20253.96     
   2236000   9062.9511     -7492.4691      1913.035      -6142.8968      4276.938       3043.9428      948.10311      1641.4584      10874.84      -1811.8886      304.04895     -1.7749837      142038.15      0.91321475    -7697.7314      1249.8378      20272.206    
   2238000   8628.032      -7611.9         1843.937      -6146.1052      4348.2898      2947.4529      968.7999       1646.6313      10630.926     -2002.8943      297.22939      106.77582      140047.5       0.92619533    -7886.6321      1237.6676      20290.226    
   2240000   8799.0775     -7530.989       1833.6941     -6145.3412      4405.5173      3000.4655      980.61268      1663.0193      10592.099     -1793.0213      296.14381      232.04934      140797.22      0.92126349    -7814.8656      1242.5382      20308.293    
   2242000   8894.8601     -7584.2227      1865.1205     -6143.5179      4310.0976      3124.3661      948.4234       1728.8657      10645.727     -1750.8674      297.64322     -147.3886       140615.87      0.92245163    -7837.2573      1243.84        20326.382    
   2244000   9143.237      -7531.8048      1853.3499     -6143.9392      4449.2838      3033.4627      966.71066      1736.4291      10779.745     -1636.5079      301.3902      -355.46184      140679.71      0.92203302    -7791.7236      1244.4417      20344.589    
   2246000   9011.8312     -7500.3681      1876.6522     -6144.4518      4383.8724      3040.6678      976.09347      1649.6921      10729.673     -1717.8419      299.99025     -53.298578      141808.69      0.91469245    -7738.8974      1249.6727      20362.79     
   2248000   8983.7577     -7622.7251      1847.6053     -6144.5848      4415.076       3047.1852      945.36021      1639.0111      10856.83      -1873.072       303.54541      293.67418      139215.91      0.93172785    -7894.005       1238.3786      20380.803    
   2250000   9035.0747     -7595.2435      1866.1853     -6144.8835      4360.5295      3083.0185      966.09354      1713.2557      10786.119     -1751.0446      301.56842      266.59529      140356.29      0.92415767    -7844.7387      1245.4706      20398.856    
   2252000   9030.7092     -7499.4093      1848.8418     -6144.1058      4293.4751      3018.1272      948.61794      1692.3038      10872.859     -1842.1494      303.99356      1115.4547      141640.21      0.91578046    -7758.4685      1253.7557      20416.891    
   2254000   8907.9116     -7532.7503      1850.6164     -6144.1142      4271.195       3003.5866      944.10089      1669.018       10846.259     -1938.3475      303.24987      41.387442      140367.35      0.92408479    -7798.056       1246.7877      20435.099    
   2256000   8952.9223     -7506.6912      1860.167      -6143.2688      4422.028       3042.4452      962.42759      1698.8057      10617.009     -1664.0864      296.84027     -890.07316      141436.59      0.9170989     -7761.854       1251.366       20453.375    
   2258000   9005.6762     -7496.1029      1829.8085     -6144.4039      4365.5243      3009.2482      940.00154      1750.3355      10751.265     -1745.5888      300.59393      598.5736       141575.2       0.91620098    -7773.9588      1254.5806      20471.728    
   2260000   8899.7384     -7564.3949      1877.0321     -6144.4807      4405.7791      2987.3366      950.73127      1662.8264      10724.909     -1825.1701      299.85704      747.54646      140612.95      0.92247081    -7805.2621      1250.7801      20490.07     
   2262000   8822.5995     -7572.6386      1877.7642     -6145.076       4264.6647      3047.5809      925.19682      1731.0033      10694.104     -1871.5046      298.99578      88.936745      140767.4       0.92145863    -7812.6687      1252.2324      20508.294    
   2264000   8936.6936     -7551.7286      1871.9237     -6144.9672      4376.6237      3005.8715      949.38658      1672.6208      10756.963     -1820.2696      300.75325      553.9606       140151.62      0.92550722    -7798.3403      1253.059       20526.55     
   2266000   8762.1218     -7573.6679      1832.9781     -6146.4716      4334.1039      2958.3453      962.17498      1619.1061      10775.553     -2013.4311      301.273       -203.22404      140212.48      0.92510554    -7861.1855      1252.0897      20544.872    
   2268000   8723.5934     -7622.0121      1851.8991     -6144.1557      4333.1719      3022.1965      925.29701      1657.746       10699.451     -1975.8572      299.14526      186.22033      140216.35      0.92507998    -7887.099       1254.4394      20563.162    
   2270000   8961.3657     -7565.0588      1836.9763     -6144.9867      4488.9404      3083.8583      929.54899      1644.7937      10687.294     -1725.9278      298.80536     -717.78016      140731.08      0.92169648    -7845.999       1256.6145      20581.462    
   2272000   8860.775      -7553.9072      1833.6621     -6143.3029      4351.9761      3008.6491      963.78398      1650.0004      10749.914     -1889.1385      300.55615     -179.68423      140178.24      0.92533145    -7834.0927      1256.4472      20599.877    
   2274000   8945.738      -7577.204       1851.9519     -6144.9303      4365.8599      3076.1077      949.20098      1690.3963      10734.355     -1788.6175      300.12116     -103.59722      140323.48      0.92437375    -7842.7732      1256.6651      20618.134    
   2276000   9076.7654     -7465.8225      1839.4364     -6144.114       4448.0669      3079.5659      959.72203      1651.2185      10708.692     -1631.9267      299.40364      226.80539      142205.7       0.91213879    -7742.9418      1267.1484      20636.191    
   2278000   9110.2367     -7536.0666      1868.0179     -6144.0662      4412.3664      3125.8885      927.08866      1678.6875      10778.321     -1668.0838      301.35038     -502.75906      141065.63      0.91951056    -7785.1052      1263.5007      20654.359    
   2280000   9005.6792     -7523.4413      1858.3763     -6144.924       4328.5947      3020.6696      978.60397      1635.291       10852.509     -1846.8299      303.42461      7.6506772      141510.59      0.91661933    -7783.4242      1268.8256      20672.626    
   2282000   8985.0277     -7485.4081      1837.9418     -6144.5468      4365.4526      3055.5449      959.46958      1714.1231      10682.451     -1697.423       298.66996     -350.79302      141752.56      0.91505466    -7762.0603      1273.3606      20690.867    
   2284000   8944.9033     -7504.1997      1859.1144     -6144.7025      4345.3438      3108.1549      939.95916      1650.6413      10690.592     -1745.6887      298.89758      1071.97        141346.24      0.91768508    -7764.3024      1272.8036      20709.192    
   2286000   8833.538      -7514.1409      1837.3545     -6144.7487      4359.7484      3040.9164      976.90607      1701.7794      10575.723     -1742.1849      295.68596      167.58835      141296.76      0.91800648    -7788.1111      1272.4625      20727.273    
   2288000   8955.2644     -7551.4674      1863.1959     -6144.1444      4417.3599      3130.3015      976.99304      1669.7603      10593.266     -1638.0013      296.17644     -676.03623      140491.16      0.92327049    -7802.0788      1269.2667      20745.351    
   2290000   9123.0299     -7588.2867      1846.0284     -6144.1211      4487.5371      3097.7515      967.78232      1702.6596      10753.679     -1630.649       300.66142     -176.16479      140599.43      0.92255946    -7855.9627      1271.3525      20763.334    
   2292000   8890.1385     -7568.6646      1857.9913     -6144.8914      4323.0823      3053.3813      940.84965      1695.1333      10733.257     -1843.1181      300.09044     -467.4928       140427.88      0.92368653    -7825.9314      1271.5719      20781.392    
   2294000   8923.1621     -7576.3949      1825.2224     -6145.4869      4374.1453      3063.6952      981.29942      1665.9468      10734.735     -1811.5727      300.13177      419.19621      140120.6       0.92571211    -7865.3109      1270.5503      20799.464    
   2296000   8690.739      -7613.3943      1851.6885     -6144.5679      4321.0533      3020.9363      958.41079      1681.5971      10615.015     -1924.2762      296.78453      305.664        139953.47      0.92681759    -7880.2158      1270.8358      20817.554    
   2298000   9084.8117     -7496.518       1900.711      -6144.3974      4367.0911      3059.912       929.73096      1738.6788      10729.603     -1644.7916      299.98829      565.77833      141628.42      0.91585669    -7712.9108      1280.7267      20835.708    
   2300000   8861.1731     -7558.4804      1881.5912     -6146.0685      4397.9918      3046.9998      963.08123      1642.21        10633.848     -1772.6748      297.31108     -373.42537      141129.72      0.91909297    -7793.0784      1279.61        20853.836    
   2302000   8883.8877     -7519.8332      1844.4855     -6145.3463      4339.2534      2941.4435      960.0111       1665.2599      10798.614     -1914.7261      301.91776     -562.19743      141265.62      0.91820881    -7794.9519      1283.0922      20871.799    
   2304000   9147.702      -7465.7539      1855.9748     -6144.8625      4384.1132      3038.6629      961.05949      1753.1058      10765.402     -1617.7001      300.98919      90.025721      141695.44      0.91542354    -7723.419       1286.7096      20889.85     
   2306000   9221.0896     -7516.8302      1867.0219     -6145.2434      4462.0192      3116.7694      972.39753      1712.4128      10752.542     -1531.4527      300.62965     -599.87751      140829.36      0.92105322    -7765.3036      1282.8754      20907.842    
   2308000   8973.335      -7455.0407      1850.4518     -6143.4608      4318.5047      3064.5166      895.12816      1653.1392      10790.096     -1816.761       301.67961     -511.72297      142010.09      0.91339519    -7723.2022      1291.8207      20925.652    
   2310000   9197.6231     -7501.6422      1896.7257     -6143.7451      4413.2715      3105.745       906.65947      1649.2483      10871.361     -1673.7375      303.95168     -640.54842      141347.31      0.91767816    -7720.1487      1288.791       20943.648    
   2312000   9221.6002     -7502.9074      1873.3921     -6145.3203      4486.1306      3057.3689      954.24016      1724.7209      10773.975     -1552.375       301.22889     -460.17714      141189.6       0.91870322    -7748.9819      1286.2405      20961.415    
   2314000   8827.8009     -7527.5992      1877.8647     -6143.3043      4335.5004      3062.6363      919.60721      1683.8435      10619.252     -1791.4515      296.903        197.38325      140905.47      0.92055574    -7765.602       1286.649       20979.216    
   2316000   9135.9061     -7518.2691      1871.5888     -6144.1659      4317.1352      3117.4905      959.36305      1688.7985      10843.965     -1708.0589      303.18573     -491.50369      141449.51      0.91701509    -7765.7162      1293.3602      20997.182    
   2318000   9084.6083     -7549.4649      1861.0245     -6144.013       4441.9434      2997.8856      981.31378      1679.9815      10815.937     -1731.3291      302.40211      53.128226      141587.06      0.91612424    -7802.5636      1294.2833      21015.095    
   2320000   9235.4281     -7457.9055      1885.2518     -6144.4911      4377.9917      3097.8554      963.70708      1715.5429      10797.476     -1562.0477      301.88594     -127.74319      141865.97      0.91432315    -7688.7232      1293.9103      21032.856    
   2322000   9056.4424     -7436.7255      1846.776      -6143.9765      4442.1586      3017.7111      932.32074      1664.4547      10733.723     -1677.2809      300.10349     -117.31361      142099.36      0.91282143    -7709.5878      1294.5138      21050.737    
   2324000   8961.5121     -7553.5883      1852.1195     -6144.8947      4313.1247      3044.2606      986.4578       1669.4998      10794.533     -1833.0206      301.80365      272.46427      140863.65      0.92082903    -7819.6377      1289.8532      21068.748    
   2326000   9145.7909     -7476.4985      1860.4247     -6143.7053      4441.9342      3040.6685      971.16638      1663.1604      10788.64      -1642.8495      301.63891     -422.61485      141575.98      0.91619595    -7732.5021      1295.5444      21086.785    
   2328000   9055.8607     -7493.3016      1845.0707     -6145.8575      4468.9861      3049.3049      967.87215      1735.3461      10628.44      -1572.5792      297.15987      212.20355      141158.36      0.91890653    -7767.3797      1296.192       21104.707    
   2330000   8807.4998     -7557.2905      1859.8499     -6144.6143      4316.1962      3056.7319      939.1503       1690.5789      10646.898     -1839.3977      297.67593      150.89185      140981.95      0.92005637    -7814.241       1295.1708      21122.741    
   2332000   9038.7506     -7542.8908      1858.4905     -6144.148       4381.1463      3083.2737      939.34233      1664.471       10799.066     -1760.315       301.93039      555.54222      141283.19      0.91809462    -7799.3152      1298.8227      21140.756    
   2334000   8954.8976     -7521.192       1850.7858     -6143.5631      4435.7022      3062.8431      951.58084      1677.6042      10641.137     -1686.239       297.51486      10.242346      141277.4       0.91813228    -7787.6558      1299.5978      21158.741    
   2336000   8851.7557     -7619.0761      1832.1331     -6144.2054      4282.4331      3083.2235      924.7447       1751.3131      10741.19      -1889.434       300.31224      457.68334      139497.22      0.92984892    -7903.3224      1287.8133      21176.773    
   2338000   8964.696      -7585.175       1832.6551     -6144.1881      4375.4202      3042.6613      997.00986      1723.3097      10723.003     -1758.307       299.80376     -888.88358      140393.88      0.9239102     -7865.9896      1295.103       21194.945    
   2340000   8896.6276     -7616.2358      1854.1932     -6144.9383      4335.1146      3061.4141      954.13283      1675.7968      10777.15      -1880.5225      301.31765     -151.54849      140258.09      0.92480467    -7883.4701      1297.0088      21213.051    
   2342000   8955.9809     -7503.5101      1874.4067     -6144.7506      4453.6215      2935.5473      915.40257      1667.6529      10757.611     -1801.6298      300.77135     -332.37875      141190.8       0.91869541    -7747.5052      1302.8526      21231.187    
   2344000   8942.8992     -7662.5367      1856.2928     -6142.9668      4425.9162      3004.9969      983.5995       1643.9159      10833.681     -1890.7822      302.89821     -116.05417      138962.99      0.93342365    -7919.9593      1290.9726      21249.468    
   2346000   9189.83       -7537.8504      1865.9949     -6143.1694      4423.877       3059.7894      955.14706      1661.8581      10904.183     -1714.3534      304.86937      504.77884      140977.61      0.9200847     -7785.8238      1302.2711      21267.773    
   2348000   9012.8891     -7567.3705      1890.5374     -6145.1459      4394.0833      3067.7761      940.04681      1682.4849      10750.477     -1737.588       300.5719       327.97759      140637.68      0.92230859    -7798.1644      1302.6378      21285.864    
   2350000   8924.5393     -7459.1279      1833.5527     -6144.9761      4387.9016      2985.8799      965.17874      1684.0918      10672.039     -1747.4992      298.37885     -170.04346      141261.78      0.91823374    -7744.2878      1308.2325      21303.932    
   2352000   9050.4012     -7530.4745      1839.2251     -6142.0905      4357.7933      3140.2631      915.99685      1713.5801      10756.108     -1705.7067      300.72934     -161.34743      140813.55      0.92115662    -7805.0345      1303.3881      21322.061    
   2354000   8997.4968     -7539.9715      1841.4871     -6144.8041      4417.5327      3012.5167      942.64897      1723.393       10744.694     -1747.1972      300.41021      468.05769      141286.56      0.9180727     -7814.0762      1306.2632      21340.392    
   2356000   8833.1886     -7543.0787      1870.2651     -6144.0727      4368.8659      2983.012       979.93477      1704.7883      10613.474     -1780.2852      296.74144      209.01734      141261.8       0.91823363    -7790.0896      1308.886       21358.646    
   2358000   8875.5644     -7489.1885      1866.9286     -6144.5069      4361.3136      3030.2058      914.17991      1649.8263      10686.805     -1811.2411      298.79171     -903.00547      141889.29      0.91417288    -7738.5958      1317.2395      21376.779    
   2360000   8939.0317     -7580.3374      1853.0556     -6145.197       4408.3589      3047.1524      860.53056      1669.3122      10826.156     -1887.1247      302.68782      586.30345      140453.33      0.92351912    -7850.2953      1307.6694      21394.9      
   2362000   8875.7588     -7580.4346      1821.5109     -6144.0663      4273.1718      3058.1052      972.3088       1657.065       10818.098     -1942.3392      302.46251      402.01485      140545.27      0.92291499    -7874.9814      1310.6964      21413.031    
   2364000   8751.5258     -7585.9858      1840.445      -6146.0962      4377.1014      3037.2817      923.21489      1674.8001      10630.765     -1879.239       297.22488     -235.72356      140429.74      0.92367424    -7861.9267      1310.6825      21431.071    
   2366000   8891.0953     -7550.3374      1861.6845     -6143.6328      4351.4618      3014.9438      946.53156      1670.1696      10740.274     -1849.1791      300.28665     -140.65498      140590.11      0.92262064    -7808.1082      1312.6912      21449.105    
   2368000   9123.0308     -7604.3467      1859.325      -6144.516       4393.5322      3111.1255      958.90751      1712.1067      10836.897     -1713.8657      302.9881       551.87739      140400.33      0.92386776    -7860.5587      1314.6859      21467.316    
   2370000   9175.1485     -7592.6464      1874.0728     -6144.9166      4438.314       3073.9982      898.5554       1703.9425      10923.829     -1748.6803      305.41863      251.75369      139808.24      0.92778037    -7834.2283      1311.2545      21485.471    
   2372000   8894.0472     -7558.2343      1861.0418     -6145.0355      4343.4576      3058.7769      904.56956      1730.7018      10698.769     -1804.722       299.12621     -62.102872      141007.06      0.9198925     -7812.7639      1317.5706      21503.504    
   2374000   9083.7666     -7557.9366      1859.498      -6145.7911      4424.9308      3076.4422      973.00692      1672.2786      10781.338     -1697.5712      301.43474      843.02506      139724.31      0.92833762    -7811.7438      1311.2653      21521.699    
   2376000   8839.7064     -7574.6766      1820.515      -6145.0005      4304.8367      3105.6334      928.56241      1668.1594      10731.676     -1891.97        300.04626      674.4673       140267.41      0.92474321    -7873.5701      1312.595       21539.959    
   2378000   9060.392      -7518.2624      1869.1511     -6143.1696      4371.8643      3064.3235      948.09941      1675.9295      10792.456     -1732.0642      301.7456       546.37967      140920.09      0.9204602     -7764.6515      1319.3546      21558.17     
   2380000   8792.0997     -7586.1033      1814.8824     -6144.6732      4280.6388      3012.1683      967.234        1693.3328      10754.62      -1962.5203      300.68773      920.05012      139985.27      0.92660707    -7885.7405      1315.3775      21576.482    
   2382000   8967.5251     -7605.6061      1864.6113     -6142.5991      4510.4065      3074.8819      926.54623      1652.2452      10687.039     -1719.5139      298.79824      27.079057      139405.58      0.93046018    -7855.8382      1316.6238      21594.727    
   2384000   8926.7267     -7574.8836      1842.7316     -6143.6109      4383.9762      2974.4365      907.40635      1704.157       10832.514     -1905.7868      302.86556     -320.96729      140741.21      0.9216301     -7850.3696      1323.8589      21613.039    
   2386000   8761.0183     -7579.3424      1833.2921     -6145.5574      4419.69        2956.114       944.57913      1657.4988      10674.744     -1913.7258      298.45449     -292.12977      140280.87      0.9246545     -7862.3571      1321.8537      21631.31     
   2388000   9189.0445     -7504.6669      1868.5388     -6144.5346      4422.4815      3089.2616      967.15048      1674.2315      10816.582     -1627.5376      302.42013     -349.74044      141269.27      0.91818507    -7754.052       1327.0957      21649.5      
   2390000   8922.1266     -7570.631       1902.174      -6143.7573      4331.3421      3040.7977      959.06309      1668.9139      10734.224     -1812.0974      300.11749     -40.601693      140698.16      0.92191214    -7782.1454      1326.8685      21667.482    
   2392000   8823.5207     -7532.6523      1830.5359     -6146.3728      4386.2692      3090.8797      924.92037      1689.465       10580.476     -1756.955       295.81885     -350.83443      140679.95      0.92203141    -7817.7121      1327.1471      21685.691    
   2394000   9233.5455     -7560.7755      1863.3781     -6144.4765      4417.9628      3138.5621      940.07782      1734.3979      10844.419     -1610.8734      303.19842     -337.84917      140608.24      0.9225017     -7812.3634      1327.3347      21703.946    
   2396000   8862.0932     -7555.7337      1862.0111     -6146.1432      4454.9413      3055.7606      916.71526      1665.6525      10608.889     -1746.7962      296.61326     -458.22989      140455.07      0.9235077     -7817.06        1326.9571      21722.092    
   2398000   8957.206      -7509.9248      1829.1722     -6144.3096      4308.1524      3063.2607      975.97997      1669.5239      10765.351     -1808.1453      300.98777     -109.59976      141387.04      0.91742025    -7795.4515      1333.1038      21740.152    
   2400000   9066.1415     -7592.5188      1849.4241     -6145.3633      4493.5326      3018.8236      976.85825      1666.3081      10799.077     -1732.9353      301.9307      -1237.8837      139697.56      0.92851544    -7862.2947      1327.6555      21758.231    
   2402000   9116.5185     -7482.5205      1850.0857     -6143.3359      4330.8422      3176.0733      935.08854      1713.2009      10737.084     -1620.5658      300.19746     -336.02145      142145.2       0.91252705    -7751.2303      1339.8636      21776.544    
   2404000   9022.7052     -7549.1684      1882.4329     -6145.0512      4473.8261      2997.6511      932.23892      1666.7806      10763.995     -1741.29        300.94986      1173.0965      140834.5       0.92101964    -7782.9303      1333.2976      21794.752    
   2406000   9010.0973     -7520.9963      1876.2197     -6145.7292      4394.834       3044.1993      970.01058      1685.3854      10706.174     -1696.0766      299.33323      1382.9239      140607.4       0.92250716    -7758.2627      1333.9252      21813.067    
   2408000   8858.8141     -7610.402       1832.4599     -6145.5983      4318.6724      3074.1044      912.94813      1712.9706      10763.659     -1904.8447      300.94045     -55.597054      139459.23      0.9301022     -7898.965       1327.6055      21831.331    
   2410000   8834.2187     -7660.6422      1821.7076     -6146.4169      4419.8514      3010.3952      956.65639      1651.9741      10780.693     -1946.4745      301.41672      542.2108       139175.43      0.93199882    -7955.39        1326.3198      21849.443    
   2412000   8809.8793     -7529.818       1840.4179     -6143.8694      4411.418       3007.096       900.54539      1628.3996      10695.69      -1885.8105      299.04011     -124.889        140701.87      0.92188782    -7808.733       1337.0543      21867.69     
   2414000   8962.1013     -7627.4373      1876.5203     -6144.0276      4396.7733      3111.9661      952.18528      1695.1395      10700.982     -1738.8805      299.18807     -716.25445      139972.88      0.92668907    -7867.4828      1334.3439      21885.822    
   2416000   8935.3725     -7574.1527      1840.691      -6143.673       4439.1711      3088.2371      964.61883      1697.8892      10622.591     -1687.2184      296.99634     -516.60333      140149.84      0.92551899    -7848.3697      1339.4881      21904.033    
   2418000   9057.2264     -7532.3217      1873.4331     -6144.6898      4411.724       3091.4819      948.32687      1683.271       10726.001     -1668.7746      299.88758      181.17052      141460.19      0.91694585    -7774.677       1347.4083      21922.168    
   2420000   9183.0088     -7520.6937      1839.9068     -6144.3194      4391.7127      3121.6827      954.53772      1712.6985      10827.483     -1644.4746      302.72492      570.42509      140801.29      0.92123683    -7796.3613      1346.5098      21940.491    
   2422000   8965.6459     -7552.9013      1838.6964     -6145.1032      4397.7327      3063.0581      953.73232      1689.9625      10720.468     -1754.8225      299.73289      241.29541      140637.61      0.92230901    -7830.8066      1349.1508      21958.894    
   2424000   9066.8004     -7457.9806      1895.285      -6142.9165      4368.3196      3097.9277      931.01442      1683.3601      10691.791     -1624.9902      298.93109      116.50105      141798.82      0.91475614    -7680.5423      1355.5004      21977.212    
   2426000   8904.5788     -7556.7005      1824.7124     -6143.6485      4422.252       2976.2815      974.68668      1688.0095      10718.986     -1814.4069      299.69144      127.17187      140420.47      0.92373521    -7846.1393      1348.9656      21995.58     
   2428000   8884.94       -7606.0069      1824.5665     -6144.0658      4354.2496      3174.0173      920.14276      1681.9692      10680.067     -1795.1274      298.60333     -118.82154      140060.35      0.92611036    -7901.8081      1348.5701      22013.962    
   2430000   8805.6302     -7614.6771      1880.1356     -6144.4852      4372.8995      2995.4497      964.80845      1663.8862      10687.613     -1881.9829      298.81429     -878.92984      139785.43      0.92793174    -7853.414       1345.7496      22032.113    
   2432000   9143.6501     -7563.9436      1841.8175     -6144.2131      4416.7382      3085.7616      990.34648      1650.9333      10866.21      -1722.5596      303.80766     -71.770837      140221.24      0.92504769    -7834.3763      1348.5422      22050.34     
   2434000   9036.1236     -7663.3986      1848.329      -6145.43        4402.2698      3074.493       915.34484      1694.0508      10910.465     -1874.3412      305.04499      489.67573      139412.67      0.93041284    -7936.7864      1342.2192      22068.526    
   2436000   9032.2541     -7553.6609      1864.1209     -6145.1551      4336.5555      3086.4064      995.28178      1727.2267      10721.479     -1689.2248      299.76115     -1075.0044      140670.12      0.92209589    -7807.9771      1346.2632      22086.581    
   2438000   9073.0581     -7541.848       1844.9904     -6144.7535      4377.7707      3080.3284      984.06106      1675.1791      10797.33      -1724.2717      301.88186      47.995334      140146.19      0.92554309    -7812.4651      1345.1158      22104.664    
   2440000   9028.3543     -7606.6998      1835.5833     -6145.0991      4355.0692      3057.8836      947.36149      1732.3106      10851.945     -1823.5908      303.40884     -89.956206      140034.08      0.92628405    -7881.3051      1343.863       22122.729    
   2442000   8756.2304     -7615.3557      1828.8898     -6144.8567      4316.4574      3015.0849      947.69242      1652.4711      10755.847     -1999.6167      300.72204      213.38009      140055.56      0.92614203    -7904.3054      1345.1128      22140.902    
   2444000   8921.8533     -7599.7915      1871.4331     -6144.9009      4430.0917      3087.9888      935.78965      1670.6285      10670.614     -1748.7607      298.33902     -926.04297      140066.57      0.92606917    -7850.129       1343.8522      22159.016    
   2446000   8945.6738     -7637.613       1869.5344     -6144.9962      4412.1138      3053.1774      975.03842      1695.3847      10723.034     -1777.3605      299.80463      117.19686      140155.35      0.9254826     -7885.7078      1346.6881      22177.001    
   2448000   8804.2694     -7542.5365      1838.063      -6144.1817      4338.04        3042.2178      935.90556      1656.6506      10680.111     -1875.8412      298.60453      435.81705      140945.86      0.92029196    -7823.8902      1356.4829      22195.003    
   2450000   8894.5392     -7565.8472      1840.0541     -6143.3611      4420.8043      3056.4237      963.71545      1678.3131      10644.437     -1749.8976      297.60713     -644.90787      140229.72      0.9249918     -7841.3658      1350.7924      22213.041    
   2452000   8951.6234     -7521.0689      1864.8149     -6144.0984      4390.118       3058.926       974.96752      1685.7418      10642.223     -1690.5991      297.54522     -334.80345      141229.02      0.91844675    -7772.0398      1354.8086      22231.068    
   2454000   8997.2512     -7555.7545      1870.0736     -6145.0375      4387.3315      3081.6242      963.8315       1703.594       10691.588     -1694.3373      298.92544      1586.7137      140882.32      0.92070702    -7800.0079      1347.9709      22249.308    
   2456000   9168.103      -7495.6348      1894.5966     -6144.9542      4497.538       3062.4639      968.7341       1649.157       10736.202     -1568.0994      300.1728       102.38712      141568.4       0.91624502    -7718.4475      1354.7216      22267.547    
   2458000   9184.0889     -7473.8478      1845.6912     -6144.4312      4375.9514      3089.9627      967.02253      1702.0856      10821.654     -1637.5655      302.56194     -250.91305      141753.88      0.91504613    -7743.6829      1356.4143      22285.738    
   2460000   8732.7522     -7519.0991      1861.908      -6145.8845      4277.207       3030.5436      974.06333      1655.4004      10598.614     -1865.8613      296.32596      1092.4406      141312.75      0.91790261    -7771.1804      1357.3938      22303.802    
   2462000   8980.5502     -7615.6617      1853.4345     -6145.15        4314.703       3085.7836      971.07002      1715.028       10801.343     -1820.7925      301.99405     -477.63886      139916.84      0.92706021    -7881.885       1347.6381      22321.952    
   2464000   9085.1645     -7549.5789      1851.8472     -6144.9626      4356.6884      3071.5257      944.02643      1681.4776      10874.141     -1788.9762      304.02941     -126.15608      140686.69      0.92198725    -7815.0074      1352.8147      22340.185    
   2466000   9109.9389     -7504.7162      1855.7441     -6145.8838      4431.0852      3062.0204      985.0933       1729.3738      10697.222     -1587.2831      299.08295     -541.50362      141162.86      0.9188772     -7762.7275      1355.9278      22358.359    
   2468000   8995.0222     -7553.0757      1841.5507     -6146.3072      4424.3525      3122.5257      982.26004      1701.2453      10622.471     -1627.4487      296.99299      738.02945      140646.93      0.92224793    -7829.3656      1354.9265      22376.631    
   2470000   8903.1649     -7632.0863      1835.8609     -6144.22        4327.8022      3178.0635      952.99337      1647.1451      10737.606     -1834.4413      300.21205     -1175.9979      140458.12      0.92348766    -7912.3927      1354.3272      22394.864    
   2472000   9092.7552     -7500.6452      1879.7595     -6144.4759      4413.9015      3085.3755      932.12003      1704.7534      10721.966     -1629.2111      299.77477      536.55343      141413.08      0.91725137    -7737.2962      1362.8376      22413.053    
   2474000   9022.8999     -7493.5999      1887.6184     -6144.4101      4385.4208      3033.9876      974.22491      1618.3155      10761.343     -1738.4428      300.87569      338.97416      141380.41      0.91746328    -7716.6186      1362.4138      22431.211    
   2476000   8975.8518     -7510.2707      1857.4        -6145.9206      4383.381       2980.7118      944.28164      1719.8706      10746.398     -1770.5464      300.45786      167.47268      141287.04      0.91806964    -7767.0171      1364.6186      22449.42     
   2478000   8775.5562     -7579.6991      1844.8461     -6146.1623      4356.5674      3032.0737      960.41022      1654.1267      10653.393     -1877.8372      297.85755     -47.629511      140771.38      0.92143259    -7852.2038      1362.7731      22467.612    
   2480000   8919.7722     -7554.3387      1837.0843     -6145.7418      4369.8035      3000.8898      973.74678      1688.4911      10749.837     -1830.0651      300.55402      131.73792      140419.26      0.9237432     -7837.1122      1363.0602      22485.817    
   2482000   9160.3363     -7465.5505      1892.9427     -6144.2765      4354.1317      3053.9762      960.50064      1728.098       10780.514     -1620.1778      301.41171     -170.73977      141815.74      0.91464695    -7688.381       1373.1174      22503.991    
   2484000   8699.5132     -7607.172       1850.2618     -6143.8217      4305.3298      2987.3932      956.79396      1630.7839      10719.944     -2020.4311      299.71824      243.77017      140097.8       0.92586278    -7870.1396      1366.2931      22522.344    
   2486000   8943.8631     -7569.8228      1862.1488     -6144.8446      4306.1796      3042.471       962.57331      1708.8827      10776.275     -1832.4121      301.29319      99.768883      140545.94      0.92291059    -7827.8407      1369.5405      22540.57     
   2488000   8887.2246     -7582.539       1884.6213     -6144.2432      4316.5819      2994.5879      990.77559      1753.4004      10674.04      -1786.8151      298.4348      -404.17908      139958.75      0.92678261    -7810.2614      1369.4183      22558.716    
   2490000   9187.7305     -7554.5144      1844.9701     -6143.7356      4584.913       3032.2772      981.93458      1654.2939      10787.592     -1599.8612      301.60959      125.27847      141453.99      0.91698607    -7823.6092      1383.8952      22576.851    
   2492000   8934.9562     -7503.2953      1855.455      -6144.359       4442.3346      3038.0441      938.39871      1651.438       10656.94      -1721.9839      297.95671     -990.07516      141580.36      0.91616757    -7769.5649      1384.5633      22594.778    
   2494000   8828.017      -7557.2887      1867.3163     -6145.1846      4369.7419      3031.7734      907.89941      1695.4673      10658.292     -1830.275       297.99451     -156.66098      140764.73      0.92147609    -7808.0223      1383.7793      22612.655    
   2496000   8962.3266     -7571.3507      1852.3736     -6143.3798      4467.0914      3037.5407      986.0657       1625.9437      10708.042     -1745.7154      299.38546     -1035.3426      140793.87      0.92128538    -7832.82        1382.5829      22630.651    
   2498000   9072.515      -7605.8828      1864.164      -6143.5244      4340.0848      3130.5196      939.31465      1710.7655      10837.074     -1764.5586      302.99305      879.50416      139969.72      0.92670998    -7857.2036      1376.0426      22648.713    
   2500000   8856.4807     -7549.8787      1833.9775     -6144.8951      4348.1477      2983.7905      997.36713      1624.7353      10763.236     -1906.7557      300.92864      11.396113      140781.42      0.92136684    -7828.4568      1385.9009      22666.656    
   2502000   9029.496      -7532.0591      1855.9044     -6144.7543      4388.8977      3071.1106      933.78709      1652.4584      10804.151     -1774.6552      302.07258      489.79251      141027.07      0.919762      -7793.6982      1386.9073      22684.594    
   2504000   8844.2051     -7490.4123      1847.8736     -6144.1259      4316.5041      3030.9334      924.71914      1685.5028      10673.21      -1829.0051      298.4116       262.34741      141575.01      0.91620224    -7755.1511      1393.4738      22702.437    
   2506000   9094.8253     -7530.3577      1841.4698     -6144.8411      4423.8283      3065.1702      952.91137      1667.4622      10819.182     -1724.357       302.49283      424.45173      140510.37      0.92314422    -7806.1872      1388.0214      22720.551    
   2508000   8988.282      -7535.9591      1814.0063     -6145.5883      4321.1836      3076.2327      993.98595      1715.9207      10748.5       -1760.2182      300.51663     -482.2101       140546.5       0.92290695    -7839.3079      1389.1275      22738.547    
   2510000   8977.3345     -7554.0269      1858.9096     -6144.2365      4333.7606      3097.486       951.63321      1677.5673      10756.241     -1778.9066      300.73306     -146.55008      140590.52      0.92261795    -7808.6315      1387.1754      22756.844    
   2512000   8926.2874     -7577.546       1837.1094     -6144.1136      4366.5182      3025.3611      953.60892      1729.404       10735.945     -1809.6581      300.16562      119.07702      140191.25      0.92524559    -7855.951       1382.954       22775.19     
   2514000   9151.3643     -7534.9825      1840.7674     -6145.1318      4371.3741      3051.3616      975.84126      1699.5543      10892.58      -1741.2157      304.54495     -395.20894      140446.21      0.92356593    -7807.3903      1387.9867      22793.476    
   2516000   9078.4452     -7528.0749      1877.4078     -6144.9448      4351.0128      3040.3643      933.5881       1772.8209      10776.271     -1697.8258      301.29307     -561.97931      140842.1       0.9209699     -7767.3415      1392.5407      22811.818    
   2518000   8988.3051     -7549.8374      1858.5088     -6145.1645      4344.4878      3118.8493      954.32467      1684.4206      10722.716     -1734.4107      299.79573     -595.96754      140768.81      0.9214494     -7806.5403      1394.7175      22829.963    
   2520000   8888.716      -7603.0624      1852.9872     -6143.9237      4371.9388      3045.6011      920.70766      1685.2536      10759.214     -1870.4977      300.81617     -164.35367      140032.33      0.92629562    -7868.7341      1390.7231      22847.967    
   2522000   9084.6743     -7569.2368      1876.6559     -6143.9135      4399.5231      3084.9838      987.43574      1668.247       10780.979     -1696.3048      301.42471     -391.14531      140487.14      0.92329686    -7811.7274      1394.8401      22866.08     
   2524000   9169.4326     -7449.822       1883.7176     -6144.4871      4290.4446      3042.1496      951.37004      1717.2787      10878.781     -1709.3485      304.15915      302.56688      142104.97      0.91278537    -7677.7017      1405.4065      22884.02     
   2526000   9101.9856     -7553.3989      1838.8184     -6144.5698      4376.3508      3051.2034      950.04541      1667.8592      10915.677     -1813.6916      305.19072      317.29772      140633.63      0.92233513    -7829.4985      1397.2884      22901.989    
   2528000   8812.5228     -7559.0766      1882.3681     -6144.8283      4290.0796      3031.7381      908.8629       1728.1375      10675.242     -1862.7187      298.4684       510.75035      140687.89      0.92197941    -7789.4507      1401.6689      22919.937    
   2530000   9000.4772     -7538.9246      1851.7438     -6143.416       4405.789       3090.3854      940.81634      1686.173       10707.91      -1707.4332      299.38179      75.779919      140825.7       0.92107715    -7805.9105      1404.1376      22937.95     
   2532000   9045.3638     -7617.7106      1871.2056     -6144.4556      4399.3807      3015.3681      931.46226      1740.3651      10849.748     -1804.3845      303.34742     -936.58823      140594.6       0.92259118    -7861.5105      1403.6716      22955.906    
   2534000   9004.8245     -7511.6234      1871.1438     -6144.3316      4407.9126      3040.6796      941.53983      1705.0105      10694.493     -1689.6686      299.00665      0.87415366     141370.61      0.91752687    -7756.8059      1413.1021      22973.764    
   2536000   9076.0236     -7492.2779      1870.2998     -6143.9227      4380.1725      3057.0151      911.67841      1725.7713      10767.287     -1691.2635      301.0419      -1135.9822      141562.83      0.91628106    -7736.463       1415.6271      22991.777    
   2538000   8912.279      -7607.5813      1863.5268     -6145.0818      4394.8677      3110.6988      906.51841      1671.0071      10718.323     -1806.0443      299.67292     -519.70555      139948.98      0.92684731    -7866.5697      1409.0684      23009.881    
   2540000   8797.9581     -7549.9181      1821.9276     -6143.8734      4290.998       3088.2138      967.86739      1662.709       10660.034     -1862.0758      298.04321      610.24738      140953.58      0.92024151    -7841.4213      1414.4493      23028.113    
   2542000   9002.4724     -7573.9573      1870.0829     -6143.8836      4357.0154      3050.724       989.59488      1714.5802      10738.316     -1735.8435      300.23189     -257.23648      140528.88      0.92302263    -7818.1982      1418.1959      23046.161    
   2544000   9053.622      -7506.4349      1844.8714     -6143.881       4365.3245      3089.3552      954.42862      1682.556       10767.402     -1713.7802      301.04511      763.62385      141157.41      0.91891272    -7776.9351      1422.6749      23064.16     
   2546000   8953.9575     -7521.4506      1822.2715     -6144.1612      4318.3895      3028.3872      952.08335      1678.6103      10819.827     -1865.8699      302.51086      447.67796      141010.43      0.91987053    -7815.4742      1421.1015      23082.225    
   2548000   8948.0009     -7537.4478      1872.8262     -6143.5471      4340.0862      2965.7546      954.27648      1710.1278      10785.924     -1837.9235      301.56298      436.18207      140989.36      0.92000797    -7780.1316      1423.1688      23100.292    
   2550000   8703.7643     -7565.6317      1828.7197     -6144.4258      4317.2876      2957.8458      970.60457      1625.8357      10713.528     -2009.7642      299.53886      1100.1469      140280.82      0.92465482    -7855.3582      1422.0138      23118.425    
   2552000   8847.5451     -7535.7935      1852.9716     -6144.9728      4252.4844      3055.637       946.61644      1697.5853      10723.017     -1875.4717      299.80414     -1213.5452      140946.31      0.920289      -7802.7014      1426.2884      23136.503    
   2554000   8959.956      -7519.4384      1859.1679     -6142.9276      4344.7778      3018.8722      951.23897      1706.658       10741.607     -1781.6511      300.32391      384.80814      140871.18      0.9207798     -7771.764       1424.1558      23154.632    
   2556000   8806.2718     -7532.6713      1850.4759     -6142.941       4367.1516      3020.3037      926.75696      1703.1593      10614.037     -1807.765       296.75718      1022.9412      140850.41      0.92091557    -7794.7774      1426.3855      23172.899    
   2558000   9101.6058     -7505.7315      1876.1433     -6143.4147      4494.3403      3002.8607      933.40832      1680.7905      10763.209     -1661.6032      300.92788      224.91407      141523.62      0.91653493    -7740.6214      1434.4761      23191.138    
   2560000   9047.4832     -7513.1082      1883.9054     -6142.7677      4421.9434      3180.9822      914.22567      1734.1322      10568.17      -1520.687       295.4748      -335.57054      141196.55      0.91865795    -7748.5767      1434.5443      23209.281    
   2562000   9129.6784     -7432.2552      1876.0144     -6143.5986      4408.0249      3084.3276      970.32651      1703.367       10663.472     -1533.7934      298.13933     -668.72236      142178.48      0.91231342    -7668.8667      1442.2722      23227.389    
   2564000   9095.785      -7468.3795      1860.2682     -6145.3146      4381.8822      3043.6471      914.944        1708.1127      10800.625     -1704.8399      301.97398      544.09481      141710.78      0.9153244     -7727.1277      1440.1547      23245.569    
   2566000   8654.3348     -7455.3391      1828.1018     -6143.296       4300.823       2978.8477      980.1446       1633.2458      10531.807     -1877.4722      294.45812      138.92418      142867.06      0.90791631    -7739.2036      1451.2796      23263.975    
   2568000   9073.9043     -7499.6137      1861.9295     -6145.4429      4414.6426      3128.1125      932.54078      1653.7926      10727.943     -1654.0387      299.94187      953.20168      140668.3       0.92210783    -7756.2835      1435.3164      23282.161    
   2570000   9080.9411     -7514.8604      1865.2505     -6144.195       4399.6922      3097.9932      953.46799      1701.253       10722.34      -1641.3985      299.78521     -395.57331      141541.74      0.91641756    -7763.6224      1444.2271      23300.406    
   2572000   8908.5517     -7620.953       1839.349      -6145.0107      4318.7852      3054.1588      951.20571      1690.3939      10820.623     -1912.0711      302.53311     -554.59818      140225.57      0.92501914    -7901.3481      1441.3503      23318.647    
   2574000   8995.9962     -7529.9737      1862.3388     -6146.2053      4418.1125      2982.962       941.38917      1688.7574      10778.615     -1782.6191      301.35862      87.019515      140273.69      0.92470185    -7783.104       1441.6428      23337.061    
   2576000   8945.594      -7548.9372      1852.7267     -6143.1276      4307.1278      3030.8355      979.73636      1664.6992      10802.533     -1856.9392      302.02734      33.358154      140815.28      0.92114533    -7810.36        1441.0238      23355.104    
   2578000   9091.5268     -7564.7183      1841.1092     -6143.7114      4451.6858      3060.3988      929.67896      1684.479       10832.605     -1741.078       302.86811     -208.27052      140075.33      0.9260113     -7839.2367      1442.5576      23373.253    
   2580000   9018.5502     -7536.4656      1884.4214     -6143.6102      4423.102       3026.991       980.58538      1666.3619      10717.164     -1698.614       299.64051      99.673034      141422.03      0.9171933     -7770.5304      1448.1987      23391.284    
   2582000   9123.298      -7515.2372      1874.9555     -6145.1167      4411.4176      3059.3215      947.08614      1713.9612      10776.91      -1653.612       301.31094      182.88958      141230.75      0.91843552    -7754.8725      1448.5531      23409.183    
   2584000   9139.9946     -7571.0141      1872.0525     -6143.9709      4386.8842      3066.194       980.97409      1674.505       10874.37      -1734.3751      304.03581     -423.60086      140492.27      0.92326314    -7817.4848      1447.888       23426.968    
   2586000   9014.6125     -7501.8012      1870.4777     -6145.3063      4365.8827      3099.719       953.84117      1663.8741      10707.925     -1693.3129      299.3822       772.61907      141199.87      0.91863636    -7749.222       1453.5632      23444.895    
   2588000   8896.6814     -7548.1441      1844.198      -6146.5866      4356.7993      3031.4578      945.94015      1716.975       10696.042     -1799.3605      299.04995      253.30144      139996.88      0.92653021    -7818.1295      1447.5392      23462.992    
   2590000   8853.2054     -7498.7739      1875.1189     -6144.7914      4322.0652      3001.6139      989.8059       1667.7895      10640.377     -1787.172       297.49363     -545.09471      141573.66      0.91621097    -7737.8549      1462.7792      23480.983    
   2592000   9025.8998     -7543.7333      1832.5831     -6144.8695      4366.8668      3033.6829      963.56314      1699.8843      10817.922     -1792.0225      302.4576       5.4607058      140282.74      0.92464218    -7824.5396      1459.3845      23498.881    
   2594000   8860.5614     -7553.8943      1857.6779     -6144.0205      4356.1876      3051.7051      917.98247      1681.0368      10693.886     -1833.3251      298.98969     -779.41781      140735.82      0.92166543    -7815.761       1463.2403      23516.809    
   2596000   8737.9628     -7556.684       1863.4839     -6144.3933      4297.4972      3035.1796      923.98934      1646.756       10672.134     -1934.1712      298.38152     -509.00313      141100.89      0.9192808     -7810.3066      1463.0689      23534.659    
   2598000   8921.3367     -7522.9056      1867.8045     -6144.7493      4404.7858      3021.6248      938.78863      1699.6055      10656.382     -1735.0456      297.94111      130.45806      141568.73      0.91624288    -7772.7501      1468.3486      23552.706    
   2600000   8966.7421     -7498.3684      1865.1175     -6144.3047      4310.413       3016.709       980.64174      1692.6359      10743.898     -1777.1559      300.38796      28.952644      140951.65      0.92025409    -7742.8988      1464.9723      23570.897    
   2602000   8879.6586     -7496.6899      1878.3994     -6144.7544      4332.4167      3047.2039      884.41565      1693.4113      10685.256     -1805.5974      298.74839      200.53848      141559.6       0.91630197    -7736.7344      1469.0546      23588.827    
   2604000   9162.6626     -7524.8357      1827.1288     -6144.8759      4448.2537      3080.3625      949.4828       1681.881       10845.265     -1682.6028      303.22208     -363.09393      141744.18      0.91510876    -7815.9499      1470.1776      23606.885    
   2606000   8810.6697     -7583.054       1825.1578     -6143.6867      4381.7051      3094.0219      932.72289      1642.2461      10661.557     -1850.887       298.08578     -372.9844       140438.27      0.92361816    -7876.4149      1462.5369      23625.025    
   2608000   8939.1175     -7515.8978      1846.12       -6142.9767      4312.2572      3011.9881      935.11873      1720.0924      10772.415     -1833.298       301.18528      10.058088      141193.66      0.91867676    -7782.9386      1466.0183      23643.02     
   2610000   8991.1101     -7452.479       1877.5985     -6143.966       4334.017       3042.1568      966.16185      1675.7348      10691.886     -1700.776       298.93376      914.44442      141574.29      0.91620687    -7686.7426      1470.9793      23661.07     
   2612000   8779.1753     -7507.3288      1827.8275     -6145.8842      4417.7931      2954.2997      946.55725      1655.149       10630.762     -1851.5865      297.22479     -199.97692      141540.91      0.91642294    -7794.7612      1470.3664      23679.153    
   2614000   8928.3642     -7561.3762      1824.8214     -6147.2115      4387.1902      2997.3006      945.21069      1750.9293      10731.5       -1803.1356      300.04132     -35.066185      139777.1       0.92798701    -7854.4329      1460.5634      23697.177    
   2616000   8883.7404     -7550.6891      1832.5155     -6145.8501      4389.9667      3019.0566      936.75478      1682.6863      10719.3       -1835.5594      299.70022     -295.89062      140745.78      0.92160019    -7836.8195      1467.045       23715.296    
   2618000   8884.5668     -7625.1067      1867.7318     -6145.3009      4449.5669      3067.2684      954.32835      1709.17        10606.909     -1722.3421      296.55789      219.06881      139603.56      0.92914062    -7876.7714      1458.4563      23733.565    
   2620000   9095.7992     -7526.9732      1887.5628     -6145.1575      4365.0056      3028.9113      945.37304      1680.1188      10860.958     -1765.159       303.66084      301.7099       141051.42      0.91960322    -7757.4505      1472.19        23751.915    
   2622000   8751.2192     -7619.0594      1832.1495     -6145.1612      4323.2093      3034.8951      921.37832      1664.1288      10739.679     -1988.4597      300.27        -76.44797       139785.87      0.92792881    -7905.1141      1464.7454      23770.126    
   2624000   8906.6494     -7515.5597      1851.0296     -6145.4897      4324.824       3017.5786      994.37857      1688.7474      10691.141     -1784.4911      298.91292      417.20611      141263.88      0.91822009    -7779.6955      1475.7084      23788.527    
   2626000   9156.9584     -7532.2289      1879.8564     -6145.6126      4435.4741      3168.7612      955.55906      1683.985       10711.164     -1554.2057      299.47275      208.5372       141177.8       0.91877997    -7764.3475      1474.3559      23806.445    
   2628000   8837.8371     -7559.079       1877.9461     -6145.1074      4342.0756      3003.3371      951.00227      1644.1113      10723.551     -1885.714       299.81908      727.21569      140279.31      0.92466476    -7800.3221      1470.5023      23824.341    
   2630000   9024.5863     -7530.878       1871.6203     -6144.2063      4400.2716      3089.5687      920.53354      1719.8895      10697.787     -1673.2006      299.09874     -613.28414      140904.31      0.92056331    -7779.8124      1476.6402      23842.456    
   2632000   8964.1962     -7574.9578      1868.9323     -6145.4892      4375.7814      2965.8643      969.08532      1688.0664      10816.913     -1852.7172      302.42939     -563.34499      140758.73      0.9215154     -7824.3023      1477.1845      23860.417    
   2634000   9078.0432     -7602.4873      1874.4871     -6145.0711      4350.5551      3054.4981      955.70526      1673.8778      10916.478     -1838.435       305.21312      169.09566      140127.62      0.92566574    -7845.0057      1477.4718      23878.31     
   2636000   8953.4112     -7644.4688      1805.2764     -6144.9411      4322.2483      3122.0292      991.70214      1740.1323      10761.433     -1808.0215      300.87821     -347.12096      139715.79      0.92839426    -7954.9191      1477.0551      23896.03     
   2638000   8822.5483     -7542.9014      1812.3233     -6145.4907      4445.2794      2942.5416      963.52659      1659.7752      10687.494     -1864.946       298.81097      970.12274      140771.35      0.9214328     -7846.1157      1485.278       23913.709    
   2640000   8919.0759     -7586.7989      1864.4701     -6144.2809      4377.6341      2986.4687      954.37532      1707.7126      10759.495     -1840.4189      300.82403      246.42483      140287.84      0.92460853    -7841.4415      1481.6412      23931.541    
   2642000   9203.0538     -7540.4042      1905.4662     -6145.7661      4386.2399      3118.9912      962.33267      1716.7165      10799.478     -1596.4237      301.9419       447.86686      141674.6       0.91555815    -7750.183       1489.9463      23949.588    
   2644000   8852.3167     -7638.0286      1855.2809     -6144.2327      4381.7455      3041.0791      950.91061      1672.3044      10733.257     -1880.9408      300.09046     -931.02603      139891.1       0.92723078    -7901.596       1480.5053      23967.671    
   2646000   8939.8272     -7642.2107      1847.5325     -6144.812       4374.8094      3043.1887      955.89266      1670.5518      10834.875     -1895.0476      302.93157     -762.12537      139782.39      0.92795194    -7912.5368      1479.9531      23985.731    
   2648000   8997.6647     -7595.5035      1853.0059     -6143.7995      4507.9044      3088.0494      999.54734      1700.6291      10587.832     -1590.1669      296.02451     -267.95682      140043.58      0.92622121    -7856.0695      1483.6178      24003.628    
   2650000   8712.1759     -7563.9829      1860.5812     -6145.6793      4393.2235      2970.9957      899.26972      1661.5729      10636.195     -1924.0192      297.3767       851.20797      140570.88      0.92274685    -7820.6093      1487.3826      24021.614    
   2652000   8779.4474     -7547.9297      1866.6842     -6144.5714      4295.5741      2980.2882      963.63569      1655.4734      10710.293     -1930.8457      299.4484       220.26133      140619.69      0.92242657    -7800.1174      1492.9506      24039.449    
   2654000   9086.7011     -7533.1873      1872.0504     -6144.4943      4474.0188      3022.1314      972.8167       1691.429       10731.936     -1645.2352      300.05352      218.74435      141012.99      0.91985381    -7780.1302      1495.0847      24057.362    
   2656000   8871.0611     -7535.3851      1834.175      -6145.595       4353.6643      3021.1842      934.14009      1642.7938      10766.084     -1895.0228      301.00826      141.26628      140709.16      0.92184002    -7820.1314      1494.8968      24075.33     
   2658000   9101.6103     -7442.849       1873.6989     -6144.4848      4272.6687      3049.5039      969.24384      1730.1038      10793.725     -1692.1147      301.78107     -395.89328      142325.97      0.91136802    -7688.5335      1506.5314      24093.459    
   2660000   8918.9752     -7502.3651      1872.8726     -6144.9828      4399.242       3001.0505      900.26742      1681.5906      10711.3       -1792.3248      299.47656      224.23627      140935.79      0.92035766    -7747.8169      1496.5606      24111.244    
   2662000   8842.6488     -7565.7742      1876.0325     -6144.4559      4322.6734      3022.97        944.88403      1667.2476      10719.071     -1876.4226      299.69384      637.01368      140879.01      0.92072862    -7806.4109      1494.0562      24128.959    
   2664000   9077.1151     -7484.5704      1856.4902     -6144.1627      4456.7491      3082.957       963.701        1700.0814      10645.869     -1568.7543      297.64719     -36.756457      141981.71      0.9135778     -7737.6472      1502.2578      24146.674    
   2666000   8840.3518     -7590.5607      1858.2199     -6144.6182      4390.639       2975.1915      958.81881      1678.5694      10714.092     -1873.7403      299.55462     -769.22972      140189.52      0.92525704    -7850.3499      1490.2575      24164.533    
   2668000   9190.1219     -7517.4078      1842.5907     -6144.5412      4511.27        3050.8142      917.82302      1700.5667      10829.006     -1638.8845      302.7675       712.99283      141229.7       0.91844235    -7791.7799      1501.5733      24182.573    
   2670000   8914.5646     -7567.0433      1853.0921     -6146.1693      4359.8569      3051.1937      932.29798      1684.6048      10746.732     -1832.1671      300.46719      407.26288      140120.32      0.92571396    -7831.6172      1495.2277      24200.356    
   2672000   8907.3692     -7571.0026      1855.5335     -6145.3209      4323.1591      3146.0419      1007.7602      1687.2081      10603.99      -1696.6207      296.47628      686.79871      140019.44      0.92638093    -7832.788       1495.3692      24218.405    
   2674000   8933.648      -7580.4843      1860.7868     -6144.2891      4460.3973      2970.7879      961.87098      1627.9031      10776.675     -1843.0275      301.30438     -1076.7447      140572.04      0.92273922    -7836.2132      1500.0456      24236.499    
   2676000   9328.722      -7560.5557      1860.1783     -6142.6333      4441.9626      3163.6593      949.43105      1689.2261      10927.454     -1598.7316      305.51998     -976.13905      140963.42      0.92017725    -7819.8695      1505.2706      24254.743    
   2678000   8912.1331     -7589.6929      1855.0657     -6144.4347      4308.4784      2954.8112      910.24912      1665.4389      10952.217     -2040.0843      306.21235     -673.94274      140153.76      0.92549309    -7852.2226      1500.6304      24272.892    
   2680000   8979.2762     -7511.7755      1846.8818     -6143.7607      4397.7409      2986.2602      943.7333       1625.0011      10835.195     -1855.9189      302.94053      288.70043      141543.92      0.91640348    -7781.5721      1513.0917      24291.135    
   2682000   9141.5564     -7521.8505      1869.1469     -6144.3441      4396.839       3085.4692      933.29888      1698.7618      10824.235     -1682.6788      302.6341      -255.33866      141807.02      0.91470321    -7772.5218      1516.8067      24309.475    
   2684000   9009.7167     -7491.5199      1845.4679     -6143.379       4423.7895      3084.6494      911.09529      1661.3317      10718.282     -1708.565       299.67175      511.09126      141519.63      0.91656077    -7759.2758      1520.4148      24327.663    
   2686000   8974.061      -7593.2949      1854.3084     -6144.1327      4436.8853      3075.1118      937.39503      1670.9545      10736.834     -1762.7726      300.19045     -506.49488      139782.46      0.92795146    -7855.1363      1509.1808      24345.82     
   2688000   8848.4619     -7617.1111      1836.0003     -6142.2162      4341.9897      3044.7887      965.17601      1699.5583      10720.276     -1871.8143      299.72752     -112.94119      139763.03      0.92808045    -7892.5478      1506.3006      24363.955    
   2690000   9082.6725     -7507.6749      1879.9227     -6143.9193      4355.195       3070.1612      951.08231      1697.807       10780.099     -1697.426       301.40009     -793.22582      141363.39      0.91757376    -7744.2016      1517.0291      24382.311    
   2692000   8921.874      -7521.2635      1826.081      -6145.0989      4318.7939      2963.4238      954.1879       1716.3212      10809.429     -1887.5546      302.22013     -102.37215      140282.96      0.9246407     -7810.0407      1512.7933      24400.958    
   2694000   9056.8218     -7515.3021      1863.1422     -6143.9815      4380.4174      3067.8934      997.19318      1682.4081      10725.051     -1668.2292      299.86102      108.69802      140986.87      0.92002427    -7766.3488      1516.7575      24419.283    
   2696000   8863.0077     -7500.8395      1880.8693     -6144.0028      4337.1695      3032.2441      913.51665      1700.9551      10643.095     -1780.0876      297.56962      421.61879      141326.69      0.91781205    -7735.9         1522.6231      24437.543    
   2698000   8742.5226     -7583.9286      1834.6943     -6144.8309      4347.8464      3041.3029      952.71884      1661.3255      10633.394     -1890.8716      297.29839     -1284.2449      140586.78      0.92264249    -7867.9522      1514.1757      24455.652    
   2700000   8875.4897     -7535.1324      1873.6411     -6144.7224      4360.5305      3083.0324      945.31269      1667.9837      10624.844     -1749.3543      297.05934     -12.278835      140581.46      0.92267743    -7781.3345      1516.7237      24473.725    
   2702000   9023.6378     -7600.8072      1849.7601     -6144.3011      4458.9479      3006.0622      988.15755      1707.1739      10758.644     -1735.0066      300.80025      102.15113      139989.02      0.92658223    -7867.6605      1514.335       24491.875    
   2704000   8971.3568     -7605.1566      1873.196      -6141.9482      4436.1889      3000.9511      947.14211      1738.6485      10722.335     -1750.9782      299.78508     -338.89444      140287.27      0.92461231    -7843.7912      1517.0287      24510.079    
   2706000   8882.6612     -7592.7221      1863.0108     -6142.7565      4300.2916      3029.6051      985.44436      1683.6203      10756.168     -1873.5063      300.731       -158.60095      139804.62      0.92780435    -7844.102       1516.608       24528.274    
   2708000   9119.0138     -7512.7275      1872.9854     -6144.2544      4312.983       3068.9252      958.92863      1744.2564      10817.917     -1698.9033      302.45745      458.57783      140803.26      0.92122395    -7754.1065      1525.1009      24546.554    
   2710000   9064.9505     -7567.5242      1849.8964     -6144.7542      4462.9343      3045.1357      942.54865      1684.5372      10792.177     -1727.2262      301.73778     -788.32074      140553.32      0.92286213    -7836.938       1522.4953      24564.734    
   2712000   8938.9451     -7534.4057      1856.0966     -6143.5666      4327.8991      3067.0234      896.49579      1714.3846      10755.018     -1816.0727      300.69886      713.15148      140912.67      0.92050872    -7798.2102      1524.887       24582.891    
   2714000   8807.2089     -7541.1633      1866.4718     -6143.77        4338.5201      3010.9248      971.49464      1666.8873      10637.844     -1830.6347      297.42279     -507.80556      140696.81      0.92192096    -7788.2208      1530.1269      24601.083    
   2716000   8917.6857     -7557.1669      1871.6879     -6143.0407      4423.1229      3074.9659      1006.8803      1642.4265      10598.81      -1681.1241      296.33145      279.24891      140890.03      0.92065663    -7798.2819      1529.5096      24619.411    
   2718000   9055.9339     -7515.5718      1863.7866     -6144.6952      4296.7028      3070.8749      982.25876      1628.7448      10873.833     -1817.8991      304.02081     -497.90124      141409.4       0.91727521    -7764.9708      1528.0278      24637.645    
   2720000   9104.9802     -7489.9384      1837.3726     -6146.27        4440.1271      3063.2613      996.55509      1671.292       10732.58      -1627.6003      300.07153      129.78606      140920.4       0.92045818    -7769.9155      1529.4825      24655.87     
   2722000   9116.882      -7495.4228      1856.0029     -6146.2255      4495.1593      3116.1076      932.30121      1686.0497      10672.91      -1556.0275      298.4032      -336.47106      141211.31      0.91856193    -7757.6028      1536.06        24674.143    
   2724000   9032.3199     -7460.1735      1864.2759     -6143.2423      4294.8104      3074.4927      987.5356       1641.5411      10773.08      -1740.7601      301.20386      186.06249      141837.69      0.91450544    -7711.975       1537.473       24692.558    
   2726000   8986.6241     -7576.2205      1868.1507     -6143.9019      4390.5589      3068.5697      936.26724      1652.1467      10791.053     -1804.4292      301.70637      28.61971       140813.99      0.92115373    -7824.4485      1534.4898      24710.72     
   2728000   8822.5469     -7550.2083      1868.1347     -6144.2451      4373.2517      3016.7075      950.85649      1666.1074      10641.942     -1819.3956      297.53739     -1197.9137      140802.1       0.92123153    -7801.7219      1539.3076      24729.044    
   2730000   8908.8971     -7602.0886      1860.4064     -6144.2529      4398.2164      3103.4497      925.9022       1674.4425      10692.822     -1783.9244      298.95992      41.184932      139902.97      0.92715211    -7855.8822      1530.1315      24747.646    
   2732000   8996.8008     -7538.8733      1846.995      -6144.6097      4332.5003      3035.5568      952.92952      1639.5455      10872.757     -1875.9559      303.99071      787.10332      141251.91      0.91829791    -7809.6407      1541.6026      24766.263    
   2734000   8982.8879     -7564.473       1875.4879     -6145.4258      4458.3465      3078.6171      901.56137      1697.2305      10681.543     -1698.6555      298.64459      460.37964      140743.07      0.92161794    -7806.6883      1540.0824      24784.622    
   2736000   8919.2705     -7602.9769      1874.2711     -6143.3693      4372.1145      3043.2178      935.54278      1686.9623      10753.508     -1834.2377      300.65665     -811.57263      140259.35      0.92479637    -7841.8341      1538.3038      24802.925    
   2738000   8893.5073     -7582.6728      1839.6709     -6145.9629      4466.7576      2974.8984      927.241        1671.5792      10741.996     -1848.4886      300.33478      758.10656      139747.44      0.928184      -7856.4527      1531.6835      24821.164    
   2740000   9167.2635     -7492.7507      1842.3418     -6144.318       4397.0796      3099.4133      978.66001      1686.1071      10800.73      -1633.4669      301.97693      358.30384      141183.23      0.91874464    -7770.2505      1538.4505      24839.36     
   2742000   9042.4908     -7519.2865      1854.3925     -6143.5046      4354.538       3025.6611      970.91075      1709.814       10789.966     -1747.4747      301.67596     -357.31599      140902.64      0.92057421    -7781.8262      1540.9906      24857.628    
   2744000   9170.5341     -7550.6775      1885.3222     -6141.1423      4491.3585      3075.9968      973.05803      1675.1719      10761.446     -1590.9122      300.87859     -803.43744      140781.24      0.92136806    -7777.5708      1544.9399      24875.744    
   2746000   8903.1524     -7598.0295      1828.3469     -6143.2407      4451.1058      2949.588       971.6533       1669.9978      10773.731     -1870.5784      301.22205      159.80296      139995.9       0.92653666    -7881.3472      1541.058       24893.972    
   2748000   8950.4236     -7545.2801      1891.1854     -6143.4445      4324.4565      3110.938       958.66892      1676.1523      10677.747     -1727.3235      298.53845      584.60405      141216.4       0.91852882    -7766.0267      1549.5457      24912.124    
   2750000   9014.7879     -7541.8316      1877.1089     -6144.0332      4322.0757      2985.1257      956.73026      1720.1206      10839.492     -1824.7036      303.06065      365.56653      140802.15      0.92123124    -7778.5342      1547.4651      24930.238    
   2752000   9138.7156     -7547.8078      1869.3589     -6144.6392      4467.6431      3082.7013      925.12481      1700.202       10786.132     -1647.4168      301.56879     -422.11884      140480.31      0.92334174    -7798.4873      1542.1957      24948.224    
   2754000   8875.3049     -7566.4737      1825.0603     -6144.4201      4341.9597      3049.5686      954.86191      1667.1845      10747.564     -1872.2588      300.49045     -366.70309      140761.09      0.92149992    -7853.9264      1549.5601      24966.316    
   2756000   9135.2368     -7610.7793      1841.4672     -6144.9516      4498.3348      3078.1979      969.85863      1699.2487      10803.86      -1668.6236      302.06444     -982.32858      140073.01      0.9260266     -7882.5357      1543.4513      24984.362    
   2758000   8991.8062     -7531.698       1845.3636     -6143.9417      4336.8438      3046.733       970.91253      1630.8331      10836.76      -1844.9537      302.98428      470.10259      140758.03      0.92151997    -7801.4049      1549.3002      25002.396    
   2760000   8692.6844     -7581.9387      1854.2755     -6145.115       4277.2149      3027.5398      913.96875      1678.4604      10668.279     -1975.5944      298.27373      813.44291      139749.92      0.9281675     -7844.209       1541.9747      25020.274    
   2762000   9225.9214     -7533.362       1822.1393     -6145.4192      4448.9134      3114.6551      957.64001      1700.0485      10861.306     -1635.385       303.67057     -757.67827      140645.11      0.92225984    -7826.7237      1551.0734      25038.087    
   2764000   8833.2769     -7579.3146      1879.4531     -6144.6858      4532.5444      2944.7819      919.99434      1667.7026      10612.801     -1779.5241      296.72263      253.81356      140869.86      0.92078842    -7818.4744      1555.1956      25056.154    
   2766000   8827.6592     -7572.9187      1872.3386     -6143.9722      4348.7556      3029.9861      923.80678      1756.2847      10613.378     -1785.719       296.73876      158.62462      140471.29      0.92340105    -7818.7237      1551.8086      25074.128    
   2768000   9097.3899     -7486.9811      1890.8987     -6144.6929      4458.5252      3088.2816      1014.5027      1623.9148      10652.941     -1555.551       297.8449       164.47904      141885.43      0.91419773    -7710.6689      1563.655       25092.045    
   2770000   8797.2304     -7593.1416      1837.8755     -6144.2233      4362.6946      3033.7589      970.05042      1666.1333      10664.083     -1866.8522      298.15641      404.37489      140034.89      0.92627871    -7870.9386      1554.0543      25109.955    
   2772000   9026.9356     -7608.9578      1829.9603     -6144.3383      4379.7039      3063.807       980.89987      1740.5114      10785.349     -1758.4138      301.5469      -418.56712      140200.11      0.92518714    -7898.8991      1552.5501      25127.869    
   2774000   9208.3826     -7507.1989      1876.877      -6143.6639      4365.7462      3115.3613      959.48432      1692.9778      10848.799     -1640.4162      303.32087      1325.4206      141187.25      0.91871849    -7743.3096      1559.3999      25145.879    
   2776000   9075.502      -7599.4231      1854.3688     -6144.0292      4442.2474      3055.1228      937.37416      1682.0293      10847.812     -1772.3097      303.29328     -62.429805      140747.21      0.92159085    -7859.1688      1557.7276      25163.947    
   2778000   8968.3154     -7599.1416      1868.8611     -6146.6146      4408.827       3009.5245      968.30572      1704.0417      10754.512     -1786.1962      300.68471      420.02708      140346.12      0.92422464    -7845.1539      1556.442       25182.057    
   2780000   8861.6745     -7466.6697      1857.7816     -6144.4715      4355.2907      2947.521       987.85571      1687.4741      10636.893     -1775.2182      297.3962      -147.72307      141295.5       0.91801467    -7722.0362      1565.1833      25200.099    
   2782000   8903.6173     -7465.8424      1854.1359     -6145.3136      4408.5329      2988.8072      912.76478      1685.5048      10665.028     -1761.4104      298.18283      727.09382      141576.44      0.91619297    -7724.9249      1566.7611      25218.382    
   2784000   8767.8736     -7562.1638      1866.6526     -6144.0026      4372.4234      3015.1716      948.52203      1657.8946      10613.376     -1845.5022      296.7387       8.3967486      140365.76      0.92409531    -7817.5517      1557.4441      25236.609    
   2786000   8811.8117     -7558.8359      1831.6675     -6144.7236      4248.9878      3106.7406      965.72362      1655.1094      10707.142     -1895.3304      299.36031      513.67146      140396.58      0.92389243    -7843.6826      1555.8991      25254.738    
   2788000   8769.1085     -7601.4272      1856.1738     -6143.8445      4299.3821      3054.9403      943.63604      1669.7641      10690.484     -1921.3753      298.89456     -108.50092      140433.65      0.92364855    -7861.648       1560.1193      25272.739    
   2790000   9150.6829     -7553.0353      1865.339      -6143.6662      4469.6439      3053.7377      972.19692      1721.6008      10764.866     -1614.1833      300.97421      249.3766       140454.03      0.92351454    -7801.2906      1559.541       25290.925    
   2792000   8976.7159     -7508.1838      1876.7261     -6143.0194      4387.5274      3008.2671      969.27833      1684.0951      10702.025     -1725.309       299.21723     -1290.0782      141507.42      0.91663986    -7746.4685      1566.2341      25309.114    
   2794000   9069.2127     -7509.2481      1904.3104     -6142.513       4288.8702      3110.7596      913.46516      1664.1676      10839.401     -1770.1882      303.05812      267.63239      141465.14      0.91691381    -7722.9732      1571.2158      25327.394    
   2796000   9135.1998     -7550.8218      1861.1917     -6144.3988      4341.6608      3173.9592      965.3507       1721.9618      10766.296     -1631.0965      301.01419      1299.1348      140647.68      0.92224297    -7808.4538      1566.869       25345.444    
   2798000   9279.5075     -7552.9968      1832.0623     -6144.383       4452.193       3106.3245      944.56117      1695.3815      10946.365     -1666.8572      306.04871     -299.80183      140951.39      0.92025585    -7838.4534      1571.3214      25363.427    
   2800000   9055.0356     -7461.5671      1869.3617     -6143.0353      4326.425       3174.3305      958.94554      1632.759       10697.816     -1642.7806      299.09956     -41.854182      142604.29      0.90958928    -7709.3577      1582.4173      25381.541    
   2802000   9014.8705     -7562.0102      1860.4711     -6145.8142      4374.5601      3134.6957      918.01918      1685.9803      10748.968     -1734.0979      300.52972      1186.1765      140199.99      0.92518791    -7820.4612      1565.0374      25399.593    
   2804000   9148.2312     -7506.3533      1869.1132     -6144.1022      4478.906       3059.9553      994.34838      1692.0858      10704.278     -1556.0468      299.28023      377.47396      141456.33      0.91697091    -7751.5584      1576.8336      25417.628    
   2806000   9067.163      -7528.7315      1860.8053     -6143.7998      4397.1065      3119.8141      949.6569       1640.1515      10772.16      -1704.997       301.17813     -480.54436      141495.58      0.91671656    -7788.0717      1578.2926      25435.379    
   2808000   9048.7946     -7484.7286      1855.4094     -6144.7235      4417.124       3014.6275      964.87613      1665.0896      10761.12      -1712.3254      300.86947      491.36624      141321.01      0.91784891    -7747.3316      1579.5484      25453.175    
   2810000   8868.8391     -7530.9142      1839.6401     -6143.3332      4254.5005      3029.8363      940.70962      1692.4693      10785.931     -1917.0916      301.56315      21.666103      141093.51      0.91932886    -7808.466       1580.9532      25470.936    
   2812000   8951.256      -7552.8444      1849.8519     -6143.6967      4315.6735      3042.083       965.47158      1658.4044      10816.313     -1865.0568      302.4126       411.50557      140457.34      0.92349277    -7815.7972      1574.9324      25488.769    
   2814000   9019.5395     -7484.716       1855.4874     -6143.5921      4399.5743      2954.8978      961.19353      1657.9557      10818.739     -1799.1993      302.48043      458.45854      141365.29      0.91756141    -7746.3027      1584.4574      25506.504    
   2816000   8950.6733     -7504.8565      1867.878      -6144.2768      4320.0983      3001.3118      951.06951      1717.7547      10741.694     -1791.0211      300.32635      516.22317      140726.81      0.92172444    -7751.9162      1580.2873      25524.307    
   2818000   8852.9886     -7593.9722      1871.3028     -6143.297       4388.5603      3046.2134      942.82746      1693.768       10647.586     -1794.5972      297.69517     -264.09999      139868.79      0.92737869    -7841.8922      1577.3818      25542.505    
   2820000   8917.8438     -7552.4764      1869.6188     -6145.561       4428.8453      3046.9238      922.52602      1649.723       10698.244     -1780.4004      299.11153      454.90254      140643.03      0.92227348    -7803.1578      1586.0046      25560.678    
   2822000   8892.4478     -7574.7777      1865.5036     -6144.5932      4444.9467      2947.4919      942.94397      1658.6694      10752.263     -1859.8153      300.62184      425.2303       140939.38      0.92033421    -7825.128       1587.3062      25578.788    
   2824000   8897.3166     -7571.5753      1881.154      -6144.5362      4386.8087      2964.2828      941.2322       1693.7482      10746.202     -1848.8855      300.45238     -284.45824      140621.39      0.9224154     -7804.4561      1589.907       25596.917    
   2826000   9039.2187     -7493.2421      1867.791      -6143.2895      4381.6881      3011.8845      949.66843      1659.5363      10805.182     -1765.9633      302.10139      104.82599      141520.31      0.91655637    -7746.3199      1595.977       25615.167    
   2828000   9108.585      -7625.5705      1856.9506     -6141.7986      4430.7021      3007.7742      937.70971      1671.7279      10971.089     -1862.5045      306.73999      12.872562      139703.17      0.92847813    -7882.8624      1583.5102      25633.367    
   2830000   9087.4279     -7536.8941      1888.7849     -6143.8492      4362.4177      3106.3891      972.73843      1708.0552      10729.786     -1642.358       299.9934       336.24679      141376.21      0.91749053    -7767.8715      1597.9601      25651.46     
   2832000   9074.6129     -7567.4881      1892.8485     -6145.5588      4401.7071      3146.257       930.23094      1710.866       10705.75      -1631.1373      299.32139      776.27186      140573.57      0.92272921    -7794.8168      1593.3358      25669.454    
   2834000   8954.0218     -7549.299       1875.2731     -6146.7136      4345.1489      3041.5874      984.86087      1707.9542      10695.21      -1741.1882      299.0267       136.49154      141152.4       0.91894534    -7788.7766      1600.8235      25687.732    
   2836000   8974.3338     -7521.1732      1851.711      -6145.6451      4380.8131      3008.6413      941.09002      1664.7665      10794.13      -1819.7964      301.7924       287.99505      140741.53      0.92162803    -7785.4783      1599.4391      25705.832    
   2838000   9101.4626     -7487.5387      1906.9792     -6144.0596      4369.8129      3069.3603      962.35054      1677.8665      10746.692     -1645.2289      300.46606     -343.42226      141163.89      0.91887054    -7697.5629      1603.2768      25723.945    
   2840000   8834.7701     -7508.4074      1836.0793     -6146.2798      4392.3172      3027.341       942.34752      1678.4122      10612.96      -1778.1899      296.72707     -713.81115      141331.21      0.91778271    -7791.7067      1606.1383      25742.193    
   2842000   9230.5132     -7494.9504      1854.8741     -6143.534       4387.5462      3062.3743      976.9093       1716.7484      10870.545     -1640.0321      303.92889      870.54378      141857.95      0.91437483    -7754.259       1614.8914      25760.388    
   2844000   8901.1809     -7571.3951      1852.4807     -6144.918       4438.0833      3033.9429      960.25968      1692.1281      10640.599     -1739.4184      297.49984     -376.63892      140568.34      0.92276352    -7833.1527      1607.3841      25778.586    
   2846000   8994.2272     -7577.4352      1826.0476     -6145.7379      4369.3642      3045.5983      979.96705      1666.8876      10829.536     -1835.3084      302.7823       303.27519      139900.81      0.92716648    -7868.3684      1605.0813      25796.892    
   2848000   9015.586      -7593.3242      1833.5399     -6143.6085      4395.1305      3074.3834      952.33752      1681.1751      10815.952     -1800.3663      302.40252     -313.02723      140134.05      0.92562327    -7874.319       1608.5165      25815.136    
   2850000   9105.5557     -7490.9234      1856.557      -6144.5112      4385.6243      3001.0389      982.0563       1707.3121      10808.402     -1702.8459      302.19141      810.08425      141898.83      0.91411137    -7748.958       1621.931       25833.264    
   2852000   8886.6925     -7522.8632      1840.3628     -6144.696       4414.4167      3058.7734      951.3584       1661.9008      10627.439     -1740.747       297.1319      -592.57339      141393.36      0.91737929    -7805.1691      1621.6517      25851.404    
   2854000   8838.0457     -7559.7234      1861.2322     -6143.0363      4393.0889      3010.839       983.1152       1627.3223      10665.208     -1827.1622      298.18787      171.01882      140740.44      0.92163514    -7813.0949      1615.9714      25869.663    
   2856000   8906.0097     -7562.3568      1875.0759     -6145.898       4268.6174      3062.6664      948.11443      1659.3537      10800.437     -1894.4271      301.96872     -862.00107      140796.81      0.92126619    -7809.0355      1621.0937      25888.053    
   2858000   8909.5751     -7606.5174      1839.4        -6142.5773      4453.8046      3037.1868      955.19809      1715.1958      10657.885     -1748.3094      297.98311     -643.05021      139814.51      0.92773875    -7881.4649      1614.1254      25906.313    
   2860000   8882.5493     -7573.175       1846.9436     -6146.7105      4397.2196      3016.9105      956.42944      1719.4528      10665.479     -1782.9296      298.19545     -143.34476      139287.37      0.9312498     -7842.3168      1612.6355      25924.558    
   2862000   9151.508      -7536.2921      1853.6366     -6145.1578      4344.5427      3049.2411      938.22918      1703.0042      10944.304     -1792.7962      305.9911      -198.18215      140926.91      0.92041567    -7797.1539      1623.4854      25942.917    
   2864000   9320.4781     -7464.7015      1858.664      -6145.1705      4480.9144      3040.3883      934.20317      1681.7205      10934.46      -1613.9816      305.71586     -183.21591      141974.7       0.91362291    -7725.3129      1631.3436      25961.199    
   2866000   9138.9827     -7535.1615      1839.6998     -6145.381       4470.2123      3168.7179      915.13444      1707.8591      10717.902     -1578.9189      299.66113     -690.16174      139735.67      0.92826215    -7815.3538      1616.8232      25979.572    
   2868000   8891.1382     -7556.0773      1857.4137     -6145.071       4369.5587      3026.3265      932.34509      1702.9881      10703.655     -1812.5164      299.2628      -375.17695      140575.41      0.92271713    -7815.5082      1621.0049      25997.705    
   2870000   8832.4027     -7593.8858      1847.1338     -6146.2644      4440.7558      3024.921       972.82598      1671.6738      10615.243     -1782.8399      296.79089     -255.27206      140810.08      0.92117935    -7863.3749      1626.9923      26016.012    
   2872000   8906.4429     -7545.4618      1857.3521     -6144.145       4340.568       3050.753       941.34767      1742.4872      10663.542     -1757.0989      298.14129     -1024.3945      140657.04      0.92218163    -7807.6294      1624.8116      26034.284    
   2874000   8895.8694     -7546.9941      1876.6277     -6144.5207      4370.1548      2973.3594      928.30697      1641.6858      10797.25      -1901.3801      301.87961      779.67057      140916.85      0.92048141    -7790.259       1623.7905      26052.448    
   2876000   9062.1127     -7541.1853      1827.5843     -6145.2678      4489.888       3077.0538      964.07033      1624.0153      10765.954     -1703.8413      301.00462     -1097.6838      141135.85      0.91905308    -7833.5261      1631.1515      26070.551    
   2878000   9030.9545     -7580.5677      1828.729      -6145.3172      4406.5009      3010.1899      976.4451       1711.9774      10822.997     -1792.0427      302.59949      226.89834      140187.07      0.9252732     -7864.3665      1624.9183      26088.509    
   2880000   8872.8103     -7531.1672      1836.8591     -6143.9624      4351.2263      2981.8322      959.98832      1672.8397      10745.194     -1872.3839      300.4242      -728.66392      140133.55      0.92562657    -7816.3009      1625.7996      26106.358    
   2882000   8928.453      -7578.9704      1827.776      -6144.9995      4328.4657      3053.3104      983.32222      1705.8902      10753.658     -1825.2055      300.66085      506.27408      139926.94      0.9269933     -7866.2219      1620.4863      26124.203    
   2884000   9015.355      -7504.4575      1858.6421     -6144.9799      4490.4815      3008.6842      893.54646      1696.6669      10716.771     -1701.4161      299.62952     -353.34346      141779.05      0.91488369    -7763.6896      1635.6671      26142.248    
   2886000   9003.6605     -7542.6979      1835.5737     -6146.3346      4417.5988      3077.3308      966.53912      1662.637       10733.014     -1729.3531      300.08364      50.146191      140849.67      0.92092043    -7825.3196      1627.7716      26160.24     
   2888000   9048.4861     -7540.2474      1861.0274     -6143.7386      4389.5002      3061.6618      977.73198      1704.8543      10737.697     -1689.2104      300.21457      127.6874       140871.87      0.9207753     -7799.0517      1628.54        26177.998    
   2890000   8976.8978     -7548.1393      1844.8156     -6144.6372      4457.9878      3019.5625      962.03715      1696.3095      10688.962     -1712.0638      298.852        35.57504       140734.8       0.9216721     -7825.4446      1626.0444      26195.787    
   2892000   9034.73       -7613.1133      1876.0749     -6144.7707      4374.6415      3066.7768      964.25122      1691.8768      10818.993     -1784.2627      302.48753     -649.5145       140654.33      0.92219938    -7855.2059      1627.9082      26213.776    
   2894000   8927.3621     -7515.1576      1865.2365     -6143.8334      4284.0301      3082.994       915.41127      1710.2436      10728.438     -1801.0756      299.9557       452.30935      141584.29      0.91614216    -7767.6488      1636.2742      26232.036    
   2896000   8998.0663     -7594.2854      1829.4947     -6142.9953      4530.753       3031.4398      940.28254      1656.2026      10747.174     -1749.1081      300.47957      314.54155      139736.4       0.9282573     -7881.1339      1623.8043      26250.059    
   2898000   9063.0094     -7539.7245      1860.9695     -6144.0505      4361.86        3063.4946      930.41515      1656.8203      10873.225     -1810.2154      304.0038      -305.47558      140821.78      0.92110283    -7798.3504      1630.0846      26267.967    
   2900000   8907.6851     -7509.2669      1863.8716     -6143.8629      4283.0169      3022.2555      956.08613      1721.9629      10713.622     -1805.9368      299.54147      237.91298      141234.03      0.9184142     -7759.3483      1631.2475      26285.793    
   2902000   9063.0616     -7581.185       1826.8199     -6144.7926      4460.773       3070.9499      928.05102      1654.0392      10848.406     -1785.3445      303.30989     -90.323721      140073.76      0.92602168    -7869.1118      1623.7926      26303.662    
   2904000   9014.4835     -7521.1073      1861.8296     -6145.4459      4338.8529      3123.7104      940.97695      1695.1398      10720.527     -1706.0434      299.73453      403.78434      141043.38      0.91965565    -7771.1815      1630.6769      26321.707    
   2906000   8956.0873     -7624.9236      1826.6133     -6147.0012      4403.1672      3075.5452      924.33235      1741.5501      10756.804     -1800.7167      300.7488      -794.62654      140055.66      0.92614135    -7917.7682      1625.0055      26339.699    
   2908000   8973.6552     -7578.5973      1839.5488     -6145.7743      4363.1935      3093.3475      916.09033      1654.2454      10831.601     -1857.9461      302.84005      421.15574      140633.3       0.92233731    -7855.2482      1632.1598      26357.927    
   2910000   8923.454      -7640.4611      1839.3633     -6144.3318      4400.5077      3020.8458      922.94055      1646.6278      10877.962     -1954.5077      304.13624     -454.33495      139652.33      0.92881616    -7917.9874      1628.4011      26376.108    
   2912000   8756.932      -7608.8269      1833.6491     -6145.3037      4326.2384      3037.2081      922.50811      1646.8946      10744.564     -1987.6323      300.40659     -17.941925      139985.98      0.92660233    -7896.1907      1630.3871      26394.299    
   2914000   8800.2275     -7622.6113      1845.8294     -6148.109       4404.1451      3047.5599      956.21961      1645.1056      10672.088     -1871.8606      298.38023     -481.83667      140053.16      0.92615791    -7900.0145      1631.4661      26412.48     
   2916000   8864.7072     -7527.5529      1841.2791     -6146.1189      4275.2424      2941.916       937.31691      1673.1419      10869.483     -2004.7756      303.89918      191.90327      140685.94      0.92199218    -7804.9808      1636.4054      26430.717    
   2918000   8904.5119     -7554.8294      1842.5919     -6145.6964      4359.4928      3061.7875      909.8125       1734.9769      10696.376     -1791.8641      299.0593       251.59238      140378.05      0.9240144     -7831.1868      1636.0919      26448.953    
   2920000   8829.8427     -7546.5399      1864.901      -6144.6953      4327.8053      3065.5149      893.7843       1662.0117      10707.061     -1877.218       299.35803     -1022.9183      141408.4       0.91728168    -7802.8443      1643.5277      26467.252    
   2922000   9027.0497     -7474.9944      1841.5841     -6143.4315      4366.4899      3013.5054      952.21494      1738.4637      10733.217     -1706.1677      300.08934     -266.2634       142238.78      0.91192668    -7746.4279      1651.9861      26485.491    
   2924000   8816.3643     -7593.8018      1897.4216     -6143.7958      4301.817       3039.2245      940.34427      1666.3475      10708.807     -1892.4426      299.40685     -190.45066      140882.42      0.92070632    -7811.8753      1642.0476      26503.683    
   2926000   9042.2302     -7543.8154      1838.3013     -6144.4441      4408.4505      3072.7393      935.62596      1672.9348      10802.438     -1760.2076      302.02467     -504.71735      140646.06      0.92225361    -7828.3979      1642.2672      26521.761    
   2928000   8856.6964     -7486.8         1891.0733     -6144.779       4348.6024      3014.0865      937.40384      1646.9752      10650.134     -1793.4379      297.76643     -790.15061      142125.09      0.91265614    -7714.5624      1652.6186      26539.904    
   2930000   9037.8        -7597.7387      1866.8328     -6145.3301      4432.8704      3067.824       953.04594      1666.7183      10793.577     -1755.7773      301.77694      1558.8582      139796.54      0.92785799    -7849.0196      1639.7454      26558.016    
   2932000   9117.7715     -7549.2677      1823.8686     -6144.2655      4461.0369      3045.964       981.0347       1706.0119      10793.389     -1675.617       301.77166     -484.24483      140099.7       0.92585023    -7834.696       1643.9285      26576.215    
   2934000   8744.8242     -7562.055       1823.7947     -6144.2437      4215.609       3051.7911      910.4719       1671.4244      10778.032     -2033.2076      301.3423       651.52528      140129.93      0.92565045    -7856.7589      1645.5168      26594.44     
   2936000   9096.1749     -7470.1547      1873.2267     -6143.8607      4387.2329      3116.7181      958.20486      1662.4266      10712.381     -1616.2062      299.50678      584.41458      141863.77      0.91433728    -7710.5945      1662.2016      26612.689    
   2938000   9044.6286     -7462.9038      1875.8094     -6143.9252      4338.6805      3083.7264      929.0867       1654.0299      10770.125     -1725.4961      301.12123      108.21289      141612.32      0.91596084    -7699.4184      1659.1248      26630.81     
   2940000   8977.3575     -7569.3569      1846.0703     -6144.754       4380.0995      3005.6381      964.22122      1667.8328      10827.607     -1850.249       302.72836     -461.69314      140063.74      0.92608795    -7838.5331      1652.5279      26648.808    
   2942000   8922.1375     -7557.5564      1822.6412     -6145.997       4349.0231      3022.725       976.05813      1736.5393      10718.704     -1796.5667      299.68357      153.49781      140608.31      0.92250124    -7850.9897      1658.7092      26666.916    
   2944000   9024.1744     -7492.3558      1875.1165     -6145.5705      4424.5365      3002.5341      924.65294      1684.4211      10750.84      -1726.6652      300.58204      791.87409      141381.03      0.91745929    -7733.987       1664.211       26684.684    
   2946000   8758.3871     -7603.2674      1854.0473     -6144.1735      4363.9793      2986.6867      927.26501      1716.7101      10657.14      -1898.7524      297.96229     -106.09652      140326.65      0.92435283    -7865.8782      1659.5783      26702.593    
   2948000   8815.9967     -7570.7808      1829.2381     -6144.8845      4302.8542      3019.4291      973.33357      1645.2681      10761.539     -1945.5422      300.88118     -41.65039       140490.11      0.92327738    -7860.0254      1659.2681      26720.614    
   2950000   8880.4216     -7551.2432      1866.4317     -6145.3183      4376.3938      2980.5189      962.87965      1690.5146      10700.245     -1819.8229      299.16746      421.65362      140559.53      0.9228214     -7803.7214      1661.1174      26738.689    
   2952000   8881.1811     -7607.3394      1867.401      -6146.3239      4366.4727      3016.7039      912.03251      1692.4815      10779.753     -1898.5717      301.39042      57.422994      140396.85      0.92389068    -7857.6062      1659.366       26756.639    
   2954000   9082.2011     -7480.9609      1840.3904     -6143.9737      4374.108       3031.084       929.54822      1682.6732      10849.332     -1767.1308      303.33578      159.4943       141205.04      0.91860277    -7749.8535      1665.0291      26774.526    
   2956000   8909.4941     -7547.2393      1842.7073     -6144.8742      4423.5422      2986.5537      951.72288      1653.9355      10743.146     -1833.6519      300.36694     -464.63794      141201.3       0.91862705    -7819.5462      1669.0808      26792.36     
   2958000   8920.6835     -7546.1736      1846.4935     -6145.652       4400.2295      2990.5368      937.73533      1663.6951      10773.819     -1853.1353      301.22451      122.71803      140702.58      0.92188313    -7816.2805      1665.3248      26810.433    
   2960000   9076.9899     -7518.2453      1835.789      -6144.4711      4416.7527      3072.9777      954.55971      1681.2643      10778.363     -1701.373       301.35156      143.40075      141208.35      0.91858124    -7795.6017      1670.57        26828.698    
   2962000   8890.3372     -7551.1099      1840.7597     -6145.8707      4370.7875      2961.8746      962.15739      1661.5311      10790.208     -1899.8704      301.68273      1054.1487      140442.7       0.92358903    -7827.0392      1666.7673      26846.794    
   2964000   8753.8995     -7556.9641      1846.2491     -6144.6857      4273.3438      3013.485       969.54393      1639.3379      10713.59      -1959.69        299.54057     -350.45361      140791.78      0.92129909    -7827.8138      1672.7704      26864.884    
   2966000   8895.7947     -7581.1314      1843.2331     -6143.8989      4297.2905      3091.2706      990.45807      1654.0675      10744.505     -1848.7105      300.40494      417.34956      141184.21      0.91873825    -7855.6197      1677.3993      26883.039    
   2968000   9155.6636     -7512.6349      1852.1131     -6145.1466      4373.3032      3069.5291      951.84738      1642.5618      10924.09      -1768.4269      305.42595      881.77994      140720.21      0.92176764    -7776.8615      1674.8198      26901.205    
   2970000   9146.9446     -7466.3495      1864.4874     -6144.4712      4399.1759      3040.6019      963.30985      1707.8207      10782.37      -1635.4249      301.46358     -306.27256      141303.76      0.91796096    -7716.4499      1680.8289      26919.386    
   2972000   8976.5386     -7564.5992      1826.3954     -6142.8456      4394.1976      3048.6804      960.65902      1675.2036      10778.847     -1802.3089      301.36511     -261.78649      139895.97      0.92719853    -7852.2509      1669.0345      26937.8      
   2974000   8936.9634     -7579.8698      1826.4696     -6145.3018      4444.6185      3021.3866      974.98584      1656.2082      10738.466     -1801.5028      300.23609      433.47016      140396.33      0.92389406    -7866.8026      1668.3094      26956.031    
   2976000   8639.4008     -7650.6487      1830.7926     -6143.1312      4226.8565      3084.1947      945.14027      1697.8931      10648.303     -2008.9027      297.71524      493.61295      138718.21      0.9350707     -7932.5557      1660.2064      26974.209    
   2978000   8803.535      -7563.7732      1839.9658     -6143.5477      4318.3382      3002.9843      910.65498      1707.7798      10731.133     -1927.5979      300.03106     -150.74397      140923.62      0.92043714    -7839.4117      1674.7755      26992.249    
   2980000   8899.6115     -7464.4774      1873.6971     -6145.0508      4316.2853      3017.5493      944.76487      1630.8746      10725.969     -1826.357       299.88667      828.3052       141751.18      0.91506356    -7708.4897      1686.6046      27010.39     
   2982000   9082.4754     -7484.6315      1860.1756     -6145.1255      4435.8665      3105.8619      960.10626      1664.6308      10685.591     -1603.116       298.75777      596.55886      140928.41      0.92040589    -7743.1297      1682.5308      27028.752    
   2984000   8973.0108     -7568.9889      1858.7369     -6144.1626      4339.306       3063.5469      932.66895      1687.0302      10804.873     -1831.8626      302.09277      131.67471      140944.66      0.92029975    -7828.164       1683.4513      27046.985    
   2986000   8878.0513     -7483.1169      1871.7534     -6144.6         4297.0016      3039.7902      944.60637      1640.6727      10711.944     -1833.8926      299.49456     -108.14234      142092.35      0.91286645    -7726.1027      1696.8408      27065.318    
   2988000   8887.0083     -7595.2048      1860.7269     -6144.7927      4406.4955      3007.6459      973.67         1656.9902      10721.477     -1834.469       299.7611       496.21832      140286.47      0.92461758    -7849.2111      1687.1531      27083.567    
   2990000   8925.3141     -7524.3584      1893.7209     -6144.5477      4329.4306      3041.0377      950.27654      1678.3871      10701.368     -1776.0534      299.19885      192.01982      141362.31      0.91758077    -7746.4331      1694.2255      27101.867    
   2992000   8976.9323     -7514.3567      1842.7751     -6145.5936      4419.7395      2949.876       934.86383      1613.924       10875.704     -1898.7718      304.07312     -102.8572       141192.96      0.91868134    -7785.5653      1693.7467      27119.986    
   2994000   9056.1215     -7490.3349      1871.0076     -6146.0657      4270.4662      3112.06        950.81417      1664.6931      10823.481     -1767.3595      302.61302     -661.07291      141119.67      0.91915846    -7738.8358      1695.4964      27138.246    
   2996000   9195.2013     -7520.8816      1876.3648     -6143.2537      4433.4893      3052.0592      949.9264       1670.8684      10876.628     -1681.4271      304.09896      451.71679      141247.49      0.9183267     -7758.7236      1699.1139      27156.481    
   2998000   9126.0352     -7479.3942      1844.2537     -6144.5293      4402.0265      2984.5744      935.12884      1682.8567      10901.119     -1775.0834      304.78368      157.85119      141796.42      0.9147716     -7750.9786      1706.402       27174.711    
   3000000   9050.1661     -7605.1631      1868.7184     -6143.5644      4458.9784      3068.2581      950.86741      1640.9034      10811.168     -1761.0018      302.26875      453.9708       140968.56      0.92014372    -7853.6727      1700.7983      27192.886    
   3002000   9168.7427     -7531.0057      1881.5823     -6145.1979      4335.6263      3042.5575      930.23715      1734.4687      10920.474     -1751.7316      305.32485      411.36812      140947.92      0.92027851    -7765.128       1702.8794      27211.102    
   3004000   8829.3425     -7540.513       1855.3089     -6144.7299      4301.4044      3019.7273      939.86028      1635.3073      10762.977     -1933.6347      300.92139      423.58549      140997.97      0.9199518     -7804.478       1701.5727      27229.01     
   3006000   8986.4516     -7506.5867      1863.1444     -6145.278       4451.1173      2982.3831      965.74599      1659.4578      10716.468     -1730.0161      299.62104      353.22796      141144.94      0.9189939     -7760.034       1704.4894      27246.98     
   3008000   8958.0985     -7578.7996      1844.514      -6143.3446      4425.9065      3088.4275      931.54999      1737.4273      10652.417     -1694.3188      297.83026     -993.99183      140178.25      0.92533143    -7852.5206      1698.8098      27265.022    
   3010000   8949.2046     -7554.3914      1898.3736     -6145.1683      4410.5795      3007.233       957.20519      1663.2585      10712.114     -1762.9099      299.49933     -78.21303       140791.59      0.92130033    -7776.4552      1704.7976      27282.956    
   3012000   8973.0897     -7515.3714      1881.9165     -6144.5815      4265.0631      3031.6309      988.42378      1667.8186      10798.19      -1825.1         301.9059      -508.16338      141388.97      0.91740772    -7752.3858      1708.3986      27300.9      
   3014000   8929.0338     -7545.2092      1843.5475     -6143.6418      4405.4625      2986.7653      953.20456      1696.5663      10732.339     -1803.305       300.06478     -797.89405      140574.37      0.92272392    -7817.5601      1700.9443      27318.827    
   3016000   9043.9492     -7484.7021      1868.7726     -6145.1104      4488.0821      3045.6694      963.67583      1666.2463      10641.315     -1597.3662      297.51986     -636.54581      141968.48      0.91366292    -7734.6563      1714.1884      27336.719    
   3018000   8892.579      -7540.2642      1849.5299     -6144.2571      4308.2155      3096.4338      930.86339      1625.1762      10766.881     -1874.3025      301.03055     -474.92812      140940.86      0.92032456    -7814.2328      1707.7923      27354.641    
   3020000   8850.2672     -7593.8329      1862.5891     -6143.9253      4305.1693      3084.4462      959.53844      1671.2043      10705.078     -1854.8107      299.30259      520.4762       139900.1       0.92717118    -7843.8317      1698.9478      27372.495    
   3022000   9062.6631     -7534.0939      1882.5669     -6144.7095      4326.2176      3006.0074      942.819        1656.474       10927.382     -1864.7185      305.51797      193.46868      141288.15      0.91806238    -7768.6758      1716.1746      27390.429    
   3024000   8842.1538     -7566.4604      1821.3672     -6145.2811      4373.1523      2965.8983      928.45446      1694.3084      10770.715     -1928.5608      301.13772      831.50263      140039.77      0.92624646    -7862.0273      1711.9148      27408.471    
   3026000   8910.2385     -7544.1975      1835.966      -6145.0032      4339.5603      2994.8064      1002.663       1723.6354      10702.808     -1792.5696      299.23913      149.54371      140923.46      0.92043818    -7823.5306      1715.4784      27426.498    
   3028000   9027.6668     -7604.7998      1826.3879     -6145.2992      4372.2198      3159.6021      967.64775      1681.0623      10770.846     -1743.1792      301.1414      -564.40901      140220.05      0.92505555    -7897.7096      1713.1128      27444.546    
   3030000   8856.2922     -7565.4766      1865.2723     -6145.0449      4424.8173      3028.2168      927.28973      1637.4271      10683.79      -1827.4981      298.70741     -630.45714      140496.23      0.92323716    -7821.1378      1718.4355      27462.768    
   3032000   8937.959      -7581.5922      1862.8538     -6145.3054      4311.7483      3127.4098      955.68055      1700.856       10706.308     -1768.3491      299.33699     -472.30825      140522.77      0.92306279    -7837.983       1721.3301      27480.901    
   3034000   9099.5164     -7569.1865      1825.2367     -6147.0517      4450.9334      3027.7356      993.11863      1674.3588      10844.371     -1744.8551      303.19709      120.97132      140729.64      0.92170591    -7860.5315      1723.6307      27499.137    
   3036000   8894.858      -7538.0164      1858.4793     -6143.5357      4290.3594      3060.2405      959.91133      1703.0133      10704.406     -1809.5483      299.28381     -357.87204      140874.38      0.9207589     -7796.3951      1725.2282      27517.602    
   3038000   9053.6267     -7515.3653      1886.9003     -6143.6113      4342.3236      3041.2965      958.32982      1688.9557      10794.797     -1741.1707      301.81105      900.53422      141247.66      0.91832556    -7743.3985      1728.3997      27535.837    
   3040000   9125.3757     -7440.2265      1870.4166     -6144.8657      4437.4954      3011.3785      923.99985      1675.1145      10792.063     -1666.6874      301.7346      -430.44682      142526.38      0.91008649    -7687.1833      1739.6516      27553.999    
   3042000   8845.5391     -7538.9461      1851.1834     -6144.4233      4399.2804      2969.0888      928.78172      1704.4921      10676.082     -1830.5429      298.4919       740.83605      140835.62      0.92101228    -7803.8871      1726.9803      27572.126    
   3044000   8991.6726     -7531.4176      1843.7892     -6144.5465      4372.6215      3050.6739      956.80329      1656.1831      10787.566     -1795.8932      301.60886      701.25779      141026.72      0.91976425    -7801.1842      1729.3678      27590.111    
   3046000   9027.5169     -7517.2771      1896.8144     -6143.5207      4367.6192      3060.7139      957.24068      1694.1492      10711.777     -1684.2604      299.4899      -277.13655      141155.26      0.91892668    -7735.9949      1736.7607      27608.189    
   3048000   8860.2611     -7552.246       1878.5704     -6144.6217      4394.7872      2999.104       960.13005      1683.0646      10641.473     -1781.2115      297.52426     -259.28329      141269.7       0.91818231    -7788.4175      1738.3885      27626.246    
   3050000   9198.7238     -7395.4906      1879.2406     -6145.1505      4401.6828      3097.6829      1010.0106      1685.1615      10665.587     -1466.8627      298.19845      261.72007      142765.37      0.90856304    -7634.562       1754.3229      27644.226    
   3052000   9147.001      -7545.3013      1851.5136     -6144.8868      4455.1554      3064.8817      957.3203       1718.0327      10790.285     -1643.2844      301.6849      -58.85928       141033.36      0.91972096    -7806.3103      1746.2293      27662.247    
   3054000   8933.9391     -7522.9289      1867.7746     -6145.9389      4328.8669      2988.1746      952.90571      1667.1625      10797.923     -1863.9836      301.89843     -166.13395      141205.33      0.91860086    -7770.0001      1746.418       27680.386    
   3056000   9045.5093     -7467.7284      1833.3577     -6145.6396      4343.3978      3002.7164      1012.1561      1714.1071      10753.142     -1707.6329      300.64642     -811.65108      141290.96      0.91804415    -7748.9069      1745.8474      27698.575    
   3058000   8857.5322     -7534.492       1823.8475     -6144.4434      4373.1923      2983.735       946.38478      1708.9459      10700.362     -1842.8298      299.17074      64.764203      140587.15      0.92264006    -7826.7416      1743.4338      27716.624    
   3060000   9159.103      -7474.9562      1838.9048     -6144.9842      4391.5236      3155.6901      929.80829      1704.6136      10758.503     -1599.4001      300.7963       276.3147       140661.77      0.92215064    -7756.8187      1743.1208      27734.683    
   3062000   8743.029      -7576.4975      1848.0923     -6144.0919      4337.5299      3028.066       944.58549      1707.5105      10597.834     -1854.8051      296.30417     -61.574919      140334.49      0.92430118    -7846.3455      1739.6869      27752.879    
   3064000   8778.7373     -7568.7834      1860.8113     -6146.2524      4357.1867      2974.5158      969.95482      1668.9155      10662.389     -1883.6518      298.10906      628.97878      140582.77      0.92266879    -7822.9314      1744.2158      27771.32     
   3066000   8904.9723     -7543.6951      1854.8986     -6144.5146      4358.5963      3005.0524      963.4726       1760.0713      10651.091     -1746.1186      297.79317      244.50298      140939.66      0.92033239    -7797.3654      1743.4343      27789.666    
   3068000   9026.9083     -7494.8117      1863.198      -6144.3782      4498.9786      3065.1952      975.58596      1690.9845      10572.156     -1545.2477      295.58624     -315.61558      141864.18      0.91433466    -7746.1086      1750.5794      27808.034    
   3070000   8884.206      -7573.1524      1841.4026     -6144.2769      4346.72        3067.9763      940.29479      1753.9771      10651.265     -1767.0586      297.79803      278.79592      140289.16      0.92459983    -7845.0367      1740.1883      27826.558    
   3072000   8874.0825     -7532.5158      1856.398      -6144.5784      4306.8963      3026.5136      945.49279      1692.5652      10723.311     -1849.2284      299.81237     -811.19412      141536.64      0.91645061    -7791.9561      1752.194       27845.073    
   3074000   8936.4866     -7487.1898      1876.0386     -6146.258       4344.7956      3129.9276      936.38824      1686.877       10595.908     -1659.4209      296.2503      -625.20918      141622.51      0.91589489    -7729.6312      1753.8911      27863.319    
   3076000   8940.7246     -7507.6315      1846.3198     -6146.575       4314.7045      2988.3723      950.86164      1678.4305      10816.242     -1875.5178      302.41063     -261.97223      141436.29      0.91710081    -7777.5018      1753.6648      27881.633    
   3078000   8775.6758     -7599.4931      1867.8616     -6144.9259      4329.7038      3067.7346      911.93943      1704.0919      10638.763     -1863.0876      297.44851     -527.17956      140497.11      0.92323139    -7850.2261      1751.091       27899.745    
   3080000   9100.85       -7583.4603      1841.6832     -6145.4102      4469.9704      3101.0995      933.18748      1707.3668      10776.413     -1675.5632      301.29705     -39.916793      140552.22      0.92286939    -7858.9212      1755.2331      27917.975    
   3082000   9116.993      -7540.9074      1893.4216     -6145.382       4368.4742      3012.63        941.8582       1754.409       10832.489     -1715.4965      302.86488     -505.40442      141149.59      0.91896361    -7765.977       1761.8963      27936.328    
   3084000   9013.0079     -7525.3196      1857.1144     -6144.0943      4413.8145      3034.6481      928.88612      1680.19        10767.769     -1754.7607      301.05536      180.51773      140302.48      0.9245121     -7783.7417      1754.703       27954.521    
   3086000   8849.6447     -7567.6127      1868.7631     -6143.7649      4458.4574      3000.6019      925.44522      1654.1572      10653.597     -1803.9527      297.86325      12.11083       140928.16      0.92040753    -7817.8883      1759.7653      27972.591    
   3088000   8999.1949     -7495.7527      1872.8721     -6144.0781      4388.7351      2992.548       987.45086      1688.7687      10708.651     -1709.4561      299.40249     -195.80247      141534.58      0.91646394    -7738.1753      1764.144       27990.871    
   3090000   9097.4583     -7481.6393      1858.3823     -6144.4334      4401.3176      3134.9717      946.11182      1634.8772      10747.87      -1650.412       300.49902      29.328594      141598.26      0.91605179    -7741.4987      1763.0864      28008.97     
   3092000   8929.2444     -7588.9073      1847.8996     -6144.7108      4418.8585      3020.1391      958.92262      1698.255       10718.788     -1789.5433      299.6859      -534.79842      140675.46      0.92206085    -7860.2174      1757.3846      28026.937    
   3094000   8748.3071     -7592.228       1860.8886     -6146.5078      4352.3658      2974.5022      977.33735      1694.5866      10627.362     -1879.0553      297.12975      567.94367      140022.44      0.92636108    -7847.5494      1755.854       28045.041    
   3096000   9027.1112     -7611.1636      1845.6832     -6144.828       4437.5345      3078.4525      923.15513      1701.6377      10796.64      -1769.5286      301.86256      323.60897      140190.43      0.92525102    -7882.6633      1758.6538      28063.159    
   3098000   9033.0006     -7569.1039      1839.0059     -6145.0215      4379.2535      3070.699       986.81914      1737.0223      10734.326     -1701.3256      300.12034     -603.04668      140076.78      0.92600169    -7844.5778      1760.2584      28081.195    
   3100000   8949.528      -7550.2344      1825.8284     -6146.319       4343.2655      3046.0039      938.81259      1718.3396      10773.831     -1824.3034      301.22487      13.848224      140265.87      0.92475338    -7841.872       1763.7634      28099.237    
   3102000   8916.8502     -7603.3546      1855.0867     -6145.1561      4342.6239      3082.5388      933.09587      1655.6384      10796.377     -1879.5271      301.85523      452.73351      140424.81      0.92370671    -7869.429       1765.7415      28117.256    
   3104000   8731.5245     -7565.2928      1829.9097     -6146.192       4318.0194      3020.0653      964.23358      1689.2044      10621.577     -1890.0524      296.96799      203.01601      140538         0.92296271    -7852.3611      1766.4878      28135.361    
   3106000   8863.3631     -7557.1628      1847.024      -6145.799       4366.2244      3091.1559      966.47146      1647.8182      10647.631     -1784.2678      297.69643     -1211.2354      140889.05      0.92066298    -7826.2453      1772.4351      28153.405    
   3108000   9095.5042     -7627.3246      1877.8458     -6145.1622      4467.2762      3061.3056      947.05647      1707.5761      10806.931     -1711.4266      302.15029     -673.03418      140368.62      0.92407648    -7871.5738      1772.3762      28171.638    
   3110000   8918.6288     -7574.3621      1842.0811     -6144.5302      4338.0307      3074.5929      958.04685      1674.6635      10750.106     -1831.4773      300.56153      653.23115      140083.72      0.92595582    -7844.967       1771.1311      28189.927    
   3112000   8996.594      -7600.2289      1841.9946     -6143.6362      4336.7099      3020.9404      968.11508      1652.5078      10920.191     -1923.5974      305.31694     -104.20284      139951.14      0.92683301    -7874.6433      1773.0734      28208.465    
   3114000   8924.5369     -7501.6264      1867.201      -6145.4374      4341.894       3090.0052      941.19571      1686.9268      10644.378     -1719.8411      297.60548      83.951932      141637.88      0.9157955     -7758.6265      1785.1265      28226.781    
   3116000   8860.1046     -7555.6338      1889.2279     -6145.319       4397.449       3008.2978      961.72136      1682.3977      10621.964     -1761.859       296.9788       231.35262      140846.26      0.92094269    -7786.5666      1780.7311      28245.024    
   3118000   8893.2793     -7542.0669      1852.1514     -6144.8585      4373.8822      2955.6741      895.97618      1679.6703      10822.85      -1929.5712      302.59539      1117.155       140386.18      0.9239609     -7806.8186      1782.7759      28263.003    
   3120000   9062.6683     -7562.9654      1851.4372     -6144.5726      4331.9675      3109.1486      963.84808      1692.5617      10821.243     -1758.575       302.55045      104.57638      140017.38      0.92639452    -7826.72        1778.2088      28281.017    
   3122000   9056.4596     -7540.8633      1857.8004     -6145.3286      4421.796       2998.4671      967.65672      1695.7604      10801.171     -1744.7112      301.98925      192.59969      140610.48      0.92248695    -7801.1926      1781.199       28299.112    
   3124000   8905.0758     -7564.1501      1877.1752     -6144.5339      4301.3001      3073.7215      924.12522      1681.2714      10756.166     -1851.0907      300.73097      1129.6801      140227.59      0.92500581    -7805.8762      1776.3404      28317.234    
   3126000   9029.3417     -7463.3919      1860.7898     -6144.4392      4296.9063      3062.6446      913.40687      1689.3372      10814.088     -1784.7463      302.3504       619.96604      142068.93      0.91301695    -7720.581       1792.0394      28335.363    
   3128000   9015.5143     -7546.8725      1871.7716     -6144.783       4497.0247      2986.9713      957.07681      1714.4117      10679.914     -1664.3994      298.59903     -261.00332      141333.11      0.91777036    -7791.0115      1789.7841      28353.383    
   3130000   8694.6376     -7587.9288      1835.3512     -6146.258       4358.054       2949.5159      944.00224      1665.2454      10676.656     -1982.0179      298.50793      290.22374      139895.11      0.92720423    -7872.0239      1783.6914      28371.227    
   3132000   8829.019      -7533.7697      1869.1624     -6145.4669      4338.6134      3049.3794      901.64532      1680.6626      10668.792     -1839.7735      298.28809     -111.57968      140774.84      0.92140993    -7785.6458      1790.3549      28389.062    
   3134000   9003.0112     -7520.3654      1845.8701     -6144.6278      4338.2268      3060.5836      983.75234      1690.5427      10749.029     -1746.0177      300.53142     -130.22709      140738.36      0.92164878    -7792.3376      1788.5984      28406.777    
   3136000   9026.9073     -7536.0704      1864.1697     -6143.4586      4387.8784      3057.5711      966.83895      1699.5015      10730.477     -1703.5694      300.01272     -522.67042      141225.22      0.91847146    -7787.8319      1796.8293      28424.589    
   3138000   8865.5586     -7527.2389      1852.9342     -6145.134       4257.2885      2991.0777      990.7922       1656.5652      10789.274     -1923.7151      301.65662      869.71353      141154.05      0.91893457    -7788.641       1795.7579      28442.876    
   3140000   8956.3818     -7566.3162      1866.5792     -6146.0766      4404.3104      3014.9998      927.74798      1685.2762      10769.861     -1813.4791      301.11386     -190.39646      140110.76      0.92577714    -7820.6209      1785.9102      28460.867    
   3142000   9087.7884     -7607.2463      1856.1271     -6143.2808      4398.5206      3153.6788      980.19711      1693.8158      10755.976     -1668.1877      300.72565      401.83134      139908.22      0.92711733    -7862.3141      1785.9551      28479.104    
   3144000   8835.6312     -7616.155       1838.6966     -6144.0985      4404.2437      3080.2689      923.34785      1639.1857      10710.142     -1874.5106      299.44417     -683.23416      140077.68      0.92599576    -7898.2585      1786.4658      28497.382    
   3146000   8877.5049     -7557.1193      1867.187      -6144.7401      4342.3944      2992.5667      967.06375      1669.6192      10740.533     -1863.0284      300.29389     -820.10082      141318.51      0.91786516    -7805.1518      1798.5969      28515.619    
   3148000   8976.3636     -7521.9705      1849.5771     -6144.1413      4441.5279      3056.6552      975.54676      1666.381       10652.787     -1676.4238      297.84061     -104.93574      141397.37      0.91735326    -7789.7845      1802.2042      28533.639    
   3150000   8942.7712     -7593.2547      1839.2683     -6144.0888      4391.7855      3118.7206      896.92491      1704.4798      10728.936     -1786.1644      299.96963     -203.69682      140031.23      0.92630293    -7870.6023      1794.5869      28551.886    
   3152000   8900.9883     -7533.2867      1845.5059     -6145.4349      4380.8083      3071.3206      955.75405      1654.1235      10672.198     -1771.2092      298.38329      383.27356      141185.6       0.9187292     -7806.0916      1800.7942      28570.055    
   3154000   9108.277      -7456.8358      1863.4107     -6143.6651      4352.6652      3063.4105      936.15526      1709.6271      10783.509     -1675.2321      301.49545      30.623484      142119.47      0.91269223    -7706.4868      1809.6192      28588.213    
   3156000   9026.0066     -7520.42        1860.5513     -6145.3307      4376.4954      3009.9309      964.30085      1709.612       10770.867     -1744.8603      301.14198      846.21737      140936.85      0.92035073    -7773.1528      1799.3376      28606.376    
   3158000   8983.4976     -7530.2924      1863.0923     -6144.2284      4444.653       3046.9249      946.75206      1681.5643      10675.032     -1691.5342      298.46254      817.28059      140749.93      0.92157302    -7782.1834      1804.1126      28624.685    
   3160000   9137.4563     -7573.8492      1880.1677     -6144.7974      4364.4896      3104.3158      956.74221      1676.4029      10873.985     -1736.5284      304.02504      671.05565      140715.13      0.92180093    -7812.0498      1805.8168      28642.966    
   3162000   8846.8274     -7553.883       1831.3146     -6145.0616      4436.1255      3002.6099      945.28978      1695.8862      10634.546     -1787.7187      297.3306      -513.91474      141601.7       0.91602954    -7840.2928      1817.3635      28661.254    
   3164000   9033.5818     -7526.6786      1856.4518     -6143.6693      4445.4494      3026.8611      891.39714      1690.1015      10793.669     -1760.087       301.7795      -6.6136419      141050.26      0.91961074    -7786.7964      1813.2554      28679.431    
   3166000   9136.1145     -7506.7984      1868.8101     -6142.6748      4388.263       3040.116       966.31433      1682.374       10839.71      -1703.5957      303.06677     -233.39964      141601.24      0.91603247    -7750.319       1816.1236      28697.723    
   3168000   8937.2072     -7585.8582      1837.3869     -6145.151       4366.9892      3077.3436      957.48794      1633.034       10795.975     -1858.7675      301.84397      155.42339      140353.72      0.92417453    -7861.5694      1809.4089      28715.958    
   3170000   9219.7928     -7474.5121      1855.1216     -6144.3375      4410.5082      3097.222       938.90969      1665.4449      10871.436     -1651.6432      303.95379     -688.54057      141488.01      0.91676559    -7737.1276      1819.0617      28734.16     
   3172000   9022.6507     -7513.2442      1837.2017     -6144.2116      4361.8423      3062.79        941.59373      1727.3678      10749.311     -1726.6601      300.5393       246.18424      141314.02      0.91789432    -7791.5267      1817.608       28752.539    
   3174000   8938.022      -7471.7207      1888.3996     -6143.6189      4357.7676      3036.3172      967.24706      1652.6836      10650.947     -1712.9245      297.78914     -128.93133      142063.03      0.91305482    -7697.7721      1821.6249      28770.817    
   3176000   8992.6063     -7443.6416      1856.3559     -6143.7091      4427.9786      3020.2997      970.18626      1662.09        10643.046     -1650.4402      297.56826      358.56186      142039.42      0.91320662    -7699.4186      1820.7424      28788.992    
   3178000   8826.0086     -7483.6429      1869.8623     -6143.2219      4312.7545      2982.16        949.17647      1641.1757      10697.744     -1871.7358      299.09756      374.07429      141782.99      0.91485826    -7730.4891      1816.0255      28807.123    
   3180000   8887.7967     -7531.1411      1866.6878     -6146.816       4312.9437      3039.7893      961.08365      1660.1899      10725.059     -1837.2628      299.86125     -296.25878      141388.92      0.91740807    -7780.5811      1813.1853      28825.212    
   3182000   9088.3978     -7559.4182      1860.5819     -6145.5591      4464.7956      3068.2558      946.14644      1625.6756      10827.92      -1739.5219      302.73712      680.63218      139804.61      0.92780443    -7814.3791      1801.9125      28843.306    
   3184000   9021.5695     -7525.3685      1839.5532     -6145.295       4356.8078      2988.832       946.14975      1684.823       10876.067     -1854.4978      304.08327      635.69466      140531.59      0.92300481    -7805.1693      1807.3606      28861.304    
   3186000   8927.7109     -7504.7172      1861.8932     -6145.4835      4333.9935      3062.7798      930.09068      1709.0319      10680.123     -1752.4117      298.60487     -532.1358       141561.97      0.91628659    -7761.5764      1816.3798      28879.428    
   3188000   8982.3812     -7532.4601      1858.1107     -6146.6025      4357.0254      3050.5108      969.66465      1691.2916      10734.841     -1752.4594      300.13473     -207.41348      140238.94      0.92493097    -7793.111       1805.5734      28897.444    
   3190000   9154.1246     -7508.7414      1866.8289     -6145.2005      4475.2477      3095.1253      909.92877      1686.5942      10774.342     -1620.2169      301.23913      170.4766       140910.99      0.92051969    -7758.7053      1816.2         28915.48     
   3192000   8988.3919     -7576.1796      1853.2583     -6145.2314      4518.0206      3037.8768      933.34914      1747.4099      10619.888     -1631.4963      296.92078      204.95397      140558         0.92283138    -7839.0178      1817.6032      28933.61     
   3194000   8988.8879     -7521.4025      1886.8903     -6144.3023      4337.7214      3039.2689      914.27275      1615.8448      10860.595     -1871.7066      303.65067     -399.15928      141131.5       0.91908142    -7751.041       1822.4883      28951.77     
   3196000   8927.966      -7569.6348      1865.7018     -6144.7785      4365.5974      3017.5587      999.91433      1655.593       10738.014     -1810.0481      300.22345     -1260.713       140851.82      0.92090639    -7822.1772      1821.5607      28969.998    
   3198000   8960.0622     -7585.7517      1829.9783     -6144.7586      4456.9832      3042.3896      970.08623      1601.3774      10789.758     -1829.6955      301.67015     -324.00571      140535.38      0.92297992    -7873.0588      1820.5863      28988.238    
   3200000   9077.3988     -7497.3891      1852.7724     -6142.3502      4313.6685      3108.7785      921.26032      1679.0054      10841.653     -1764.2541      303.12108     -547.62592      141170.35      0.91882846    -7760.9465      1829.3771      29006.627    
   3202000   9112.1899     -7502.1401      1856.2123     -6145.9779      4513.9988      3069.2813      941.2599       1660.9127      10718.643     -1606.453       299.68185     -574.6558       141914.14      0.9140128     -7762.7821      1835.5928      29025.024    
   3204000   8866.2545     -7605.6974      1873.006      -6144.1171      4369.4909      3012.7335      923.34565      1695.1297      10742.363     -1876.1087      300.34505      559.94866      139982.26      0.92662694    -7844.7442      1820.0789      29043.286    
   3206000   9058.4527     -7579.1066      1867.3678     -6143.8934      4446.2836      3039.2664      940.72344      1729.4857      10758.326     -1699.8731      300.79134      493.63399      140553.47      0.92286115    -7825.0509      1825.8094      29061.427    
   3208000   9082.8581     -7555.8549      1871.7887     -6143.1836      4377.2158      3164.258       981.58954      1698.9202      10688.124     -1605.2663      298.82859     -286.68036      140354.84      0.92416718    -7799.68        1826.0185      29079.575    
   3210000   8831.7061     -7565.8856      1859.7224     -6142.7518      4313.6798      3004.1844      968.42927      1666.1046      10728.223     -1896.5171      299.94971      452.38242      140867.15      0.92080613    -7817.494       1826.549       29097.793    
   3212000   8900.4234     -7589.3147      1843.089      -6143.95        4340.7063      3016.4412      946.80452      1652.6774      10833.97      -1933.5464      302.90627     -696.42558      140143.72      0.92555939    -7868.4549      1825.3486      29116.156    
   3214000   8848.748      -7580.4823      1830.7555     -6145.0301      4441.8948      2981.2815      981.72534      1690.8948      10647.709     -1798.9606      297.69861     -495.48808      140250.9       0.9248521     -7867.7395      1827.2599      29134.567    
   3216000   8993.2396     -7559.6312      1849.3875     -6145.2478      4351.2686      3026.1867      957.0551       1696.6299      10817.591     -1824.3512      302.44833      374.85044      140608.32      0.92250115    -7825.7209      1828.726       29152.927    
   3218000   9032.0278     -7451.7278      1877.2657     -6144.0404      4364.7538      3076.3534      986.91215      1662.7847      10659.726     -1627.6984      298.03461      389.67484      141871.17      0.9142896     -7687.8865      1841.5067      29171.265    
   3220000   9137.9028     -7549.277       1842.2004     -6145.8383      4457.4859      3064.1363      955.82857      1652.1659      10861.201     -1723.2983      303.66763     -198.21218      141052.08      0.91959889    -7827.649       1835.393       29189.503    
   3222000   9087.2483     -7517.5302      1841.2654     -6144.6584      4434.808       3061.9277      921.49426      1657.6851      10832.257     -1745.0082      302.85837      1036.453       141176.8       0.91878651    -7793.1191      1842.0261      29207.767    
   3224000   8769.5313     -7606.9476      1866.8639     -6146.3246      4335.6612      3044.9648      986.11055      1666.206       10622.997     -1853.4657      297.0077      -813.90514      139891.69      0.92722688    -7863.1269      1832.184       29226.047    
   3226000   8766.0908     -7579.788       1842.4711     -6144.2678      4259.1184      3106.1232      940.7386       1713.8331      10627.862     -1861.7713      297.14372     -438.75941      140461.95      0.92346248    -7857.5245      1832.5632      29244.109    
   3228000   9207.1882     -7552.6677      1848.2616     -6145.4855      4504.9347      3045.3658      1012.2519      1665.5031      10829.024     -1621.8362      302.768       -183.81945      140561.44      0.92280886    -7819.1303      1832.4742      29262.342    
   3230000   9018.6095     -7468.6794      1862.3545     -6144.8925      4314.4896      3041.6459      959.74211      1696.1573      10757.792     -1739.1825      300.77642      656.83937      141863.67      0.91433798    -7721.2316      1845.9786      29280.701    
   3232000   8946.4833     -7536.2817      1875.7738     -6142.6944      4347.4489      3058.7404      905.94713      1738.6091      10698.94      -1752.4568      299.13099     -365.07966      140854.04      0.92089187    -7778.3913      1835.9247      29298.854    
   3234000   8853.604      -7592.4861      1869.2229     -6144.8412      4351.7806      2993.8021      945.94374      1692.5998      10737.582     -1883.9783      300.21138     -857.1982       140674.88      0.92206465    -7842.1917      1838.3544      29316.896    
   3236000   8993.4293     -7555.9257      1868.1056     -6144.0738      4357.5818      2982.7596      951.23099      1688.8824      10844.868     -1851.439       303.21098      186.45284      141063.07      0.91952725    -7803.9522      1843.0226      29335.145    
   3238000   8935.6904     -7562.8686      1859.9173     -6144.2859      4390.183       2949.579       970.19122      1682.6966      10790.278     -1854.5874      301.68469     -156.84105      139856.88      0.92745765    -7815.6259      1829.2655      29353.438    
   3240000   9056.0551     -7542.8632      1842.54       -6143.9119      4342.9573      3066.0731      970.64879      1704.8072      10815.804     -1759.7486      302.39837      284.44614      140470.68      0.92340506    -7811.9555      1837.8515      29371.601    
   3242000   8899.7311     -7555.3868      1842.3409     -6144.0407      4344.1488      3031.0729      936.80998      1704.4076      10740.378     -1840.6474      300.28956     -221.69749      140557.19      0.92283672    -7833.6154      1838.3158      29389.859    
   3244000   8967.7054     -7483.0533      1849.1702     -6143.3896      4260.6184      3085.8236      949.42632      1717.1896      10731.92      -1764.2148      300.05307     -77.514894      141957.69      0.91373239    -7745.0231      1848.6698      29408.012    
   3246000   8903.238      -7583.1792      1833.0108     -6142.6695      4376.2806      3106.847       935.37822      1625.621       10751.949     -1848.711       300.61306      49.11471       140226.4       0.92501369    -7867.2292      1839.457       29426.322    
   3248000   9037.9888     -7518.0062      1854.6973     -6144.9162      4293.4686      3142.5621      970.88459      1678.0324      10761.266     -1723.2774      300.87356      426.34713      140995.59      0.91996734    -7778.6498      1841.6944      29444.448    
   3250000   8953.5916     -7568.3175      1872.6744     -6143.2891      4378.7248      3111.0457      938.7233       1655.9367      10708.093     -1754.5017      299.3869      -976.15969      140862.01      0.92083975    -7812.0285      1845.2505      29462.485    
   3252000   9082.9064     -7615.4901      1844.7618     -6145.3318      4495.5165      3071.0797      940.56393      1693.6447      10798.162     -1715.2553      301.90512      335.87724      139956.75      0.92679586    -7886.2901      1839.0961      29480.504    
   3254000   9039.4195     -7554.4498      1863.774      -6144.3225      4368.6493      3090.8522      929.23848      1715.0459      10770.632     -1731.2124      301.13541      62.846876      140092.48      0.92589792    -7808.6127      1840.9897      29498.723    
   3256000   9001.5542     -7526.3184      1880.1994     -6143.8743      4335.6321      3079.4141      979.3992       1688.4266      10708.675     -1707.1213      299.40317      13.621775      141127.77      0.91910571    -7760.8159      1851.7053      29516.901    
   3258000   8910.6913     -7483.9623      1827.9538     -6146.0375      4453.4046      2995.0022      949.30557      1703.3052      10611.72      -1701.0284      296.69239      210.8682       141783.56      0.91485455    -7773.3178      1858.0269      29534.963    
   3260000   8954.1057     -7573.149       1862.0314     -6145.7079      4357.9376      3103.644       957.50658      1680.0944      10711.749     -1757.6429      299.4891      -552.457        140362.98      0.92411362    -7831.9501      1844.8811      29552.787    
   3262000   9177.6441     -7550.9581      1834.9721     -6144.88        4463.4241      3083.4227      936.02894      1656.8202      10898.814     -1721.17        304.71925      521.89693      140807.75      0.92119462    -7830.6995      1850.7864      29570.801    
   3264000   8907.8192     -7560.0321      1879.8803     -6146.4804      4274.8537      3089.0324      970.63818      1711.0918      10688.835     -1781.0162      298.84847      402.45668      141091.19      0.91934397    -7797.0767      1854.6636      29588.809    
   3266000   9030.1469     -7572.4995      1849.4157     -6145.3874      4402.7199      3053.7887      951.25106      1682.9917      10807.867     -1777.7198      302.17646     -62.07243       140721.15      0.92176148    -7842.9819      1851.2118      29606.994    
   3268000   8949.1911     -7528.058       1860.1177     -6145.105       4319.1759      3114.3075      900.17539      1710.7739      10717.804     -1768.6126      299.65839     -433.69104      141242.97      0.91835606    -7784.9724      1859.9448      29625.251    
   3270000   9088.5436     -7577.8245      1844.1825     -6144.6521      4452.1166      3044.5545      914.3281       1698.2984      10857.54      -1768.9965      303.56527     -133.10238      140223.57      0.92503233    -7854.4437      1852.3509      29643.398    
   3272000   9082.796      -7530.5143      1860.6049     -6145.3558      4282.8608      3163.5844      1004.1454      1692.4126      10755.058     -1672.2619      300.69998     -204.36674      141334.61      0.91776064    -7786.113       1858.5455      29661.52     
   3274000   8952.471      -7526.3829      1877.0093     -6144.5132      4400.3356      3005.6993      948.98922      1653.3147      10738.019     -1785.5478      300.22358      77.15291       141264.46      0.91821638    -7760.4212      1860.5369      29679.502    
   3276000   8855.8756     -7598.7719      1848.3109     -6144.7359      4471.146       2984.7685      945.68794      1671.98        10677.49      -1821.6145      298.53127      288.93123      140055.68      0.9261412     -7865.861       1851.9816      29697.933    
   3278000   8847.5364     -7511.6243      1847.219      -6145.4772      4273.1176      3028.5826      911.5893       1693.157       10750.972     -1903.4359      300.58575      45.46591       141213.82      0.9185456     -7780.8286      1861.8699      29716.36     
   3280000   8976.1529     -7584.0404      1877.8974     -6145.2498      4405.2671      3058.4246      922.50957      1676.61        10764.735     -1788.5816      300.97053      290.19876      141223.76      0.918481      -7823.7688      1861.6568      29734.412    
   3282000   8864.2455     -7619.5239      1818.6676     -6145.9181      4336.2293      3078.8323      984.79583      1746.4034      10664.759     -1800.5136      298.17532      190.00763      139778.34      0.9279788     -7912.5093      1853.2576      29752.513    
   3284000   8942.4206     -7671.7614      1836.4314     -6143.6615      4425.9738      3116.2899      925.36412      1660.8842      10792.9       -1850.4794      301.75801      796.13646      139114.91      0.93240425    -7952.6456      1845.6094      29770.898    
   3286000   8785.7711     -7599.8196      1867.7059     -6145.4493      4284.9199      3000.4784      932.86787      1664.9367      10780.131     -1994.3602      301.401        345.53151      140260.35      0.92478976    -7856.1506      1857.7716      29789.186    
   3288000   8720.1611     -7638.1151      1818.429      -6145.5435      4363.5067      2995.9711      926.2402       1699.858       10699.815     -1979.6537      299.15544     -332.59352      139546.96      0.92951748    -7939.522       1852.5202      29807.176    
   3290000   8926.4369     -7699.9625      1827.6865     -6144.6229      4458.3543      3118.6722      941.00484      1703.615       10721.69      -1795.2526      299.76703     -154.54441      138811.99      0.93443903    -7992.9678      1847.4601      29825.121    
   3292000   8968.529      -7556.4599      1853.8466     -6147.1805      4273.9465      3083.3079      903.6195       1699.7719      10857.677     -1889.1481      303.5691      -114.67015      140554.46      0.92285463    -7823.3844      1861.2222      29843.31     
   3294000   8769.2652     -7617.3062      1811.7232     -6146.4658      4406.3979      3056.071       939.05352      1678.3841      10641.408     -1872.1423      297.52244     -959.17933      139741.31      0.92822472    -7924.1015      1854.4804      29861.695    
   3296000   9012.5648     -7651.5515      1824.2651     -6146.286       4456.2907      3050.7725      947.22101      1668.1254      10863.728     -1851.1628      303.73827      572.42392      139763.12      0.92807985    -7946.1376      1856.5573      29880.2      
   3298000   8898.4271     -7546.89        1840.2535     -6145.6831      4267.9885      3045.9402      954.33283      1710.8286      10771.657     -1873.2296      301.16406      718.29024      140595.81      0.92258323    -7822.8146      1863.8541      29898.481    
   3300000   9044.6124     -7524.6854      1860.36       -6144.6701      4378.9811      3112.014       980.84543      1688.3508      10693.416     -1648.8041      298.97655     -353.13664      141556.63      0.91632114    -7784.9777      1869.7607      29916.798    
   3302000   8881.5354     -7645.7264      1861.171      -6144.5992      4405.6698      3054.2115      980.72062      1637.4744      10732.614     -1851.0782      300.07246     -854.59453      139232.17      0.93161904    -7903.1408      1851.0788      29935.189    
   3304000   8837.7048     -7632.9837      1817.0741     -6144.8082      4387.2393      3040.2164      964.82666      1665.2438      10740.897     -1903.1918      300.30404      20.073262      139456.29      0.93012179    -7933.542       1853.9611      29953.568    
   3306000   8960.6239     -7619.5377      1830.065      -6145.721       4367.1602      3123.4513      989.18968      1683.0764      10732.94      -1772.3161      300.08159     -39.655503      139798.11      0.92784757    -7905.6556      1861.3113      29971.961    
   3308000   8878.3951     -7565.555       1839.2159     -6143.1996      4305.2011      3085.7077      960.53303      1625.6608      10770.831     -1892.4361      301.14098     -137.22491      140186.1       0.92527956    -7841.5887      1862.4752      29990.147    
   3310000   8901.2082     -7522.9959      1885.9115     -6144.1628      4343.2508      3076.4586      947.471        1654.7415      10660.533     -1759.3253      298.05718      86.664868      141276.97      0.91813506    -7756.7361      1869.8439      30008.302    
   3312000   8945.2719     -7569.2413      1889.8747     -6145.3498      4458.6991      3079.5171      924.90713      1714.881       10591.984     -1646.7121      296.14061      363.67345      140217.85      0.92507007    -7798.5613      1866.9551      30026.302    
   3314000   8872.564      -7581.6922      1875.3054     -6145.1244      4356.2291      3015.6536      946.68799      1668.7531      10736.751     -1864.1875      300.18815      27.552196      140540.34      0.92294735    -7820.2207      1869.4257      30044.308    
   3316000   8965.2301     -7545.6549      1892.2546     -6142.621       4357.6363      3028.0333      958.13593      1651.9297      10765.516     -1800.2861      300.99238     -295.87177      140997.87      0.91995248    -7768.0819      1873.7955      30062.294    
   3318000   8982.5698     -7512.7211      1897.8051     -6144.5861      4378.8416      2995.5873      921.24706      1676.2662      10770.13      -1787.5599      301.12137     -723.83207      141558.11      0.91631158    -7731.3071      1879.8845      30080.19     
   3320000   8889.7849     -7532.222       1857.9456     -6145.5425      4388.8447      3073.0419      976.39278      1636.9359      10634.389     -1744.6037      297.32619     -254.08415      140955.91      0.92022634    -7793.1627      1879.6418      30098.091    
   3322000   9164.9841     -7531.9272      1851.2759     -6144.0012      4534.2527      3063.7812      925.5029       1702.2358      10763.864     -1598.8799      300.94619     -50.746962      140714.7       0.92180378    -7794.8967      1875.5321      30116.129    
   3324000   9053.517      -7573.517       1878.6316     -6144.5116      4465.4328      3017.4272      970.07089      1667.2136      10772.77      -1719.2526      301.19518      162.21791      141029.04      0.9197491     -7807.5162      1878.2221      30134.157    
   3326000   8659.1442     -7578.9647      1875.001      -6144.6042      4328.8251      3005.5488      893.04951      1679.4454      10600.843     -1941.6992      296.3883      -271.55216      140116.1       0.92574183    -7826.8667      1870.2329      30152.108    
   3328000   8826.0604     -7485.4514      1874.8443     -6145.4084      4398.1753      2949.9875      965.97658      1643.7357      10624.201     -1798.1404      297.04135     -453.6959       141040.18      0.91967646    -7728.3073      1873.9016      30170.045    
   3330000   8916.2827     -7510.8604      1866.3026     -6145.2691      4359.2486      3070.5287      905.65187      1664.2414      10706.439     -1790.1564      299.34065      738.57039      141276.7       0.91813678    -7758.5053      1878.5088      30188.025    
   3332000   9137.2019     -7521.8538      1865.7205     -6145.1416      4407.9071      3065.4573      920.44093      1725.6332      10819.038     -1681.8364      302.4888      -358.21543      141383.69      0.91744203    -7774.2782      1880.1397      30205.831    
   3334000   8903.745      -7579.3623      1869.6937     -6145.6229      4380.633       3107.2112      926.1054       1688.0987      10656.988     -1753.2432      297.95805     -953.81447      140626.48      0.92238202    -7828.1152      1874.7735      30223.599    
   3336000   8898.4559     -7524.1727      1846.2691     -6143.9095      4309.8652      3059.3612      887.21128      1674.4643      10789.367     -1890.9111      301.65922      295.97626      141205.56      0.91859935    -7792.5497      1876.4415      30241.618    
   3338000   8921.6636     -7606.2678      1837.0898     -6144.5799      4343.0475      3102.144       940.98577      1723.2053      10726.039     -1804.3754      299.88864      763.80188      140652.16      0.9222136     -7880.8661      1870.6571      30259.612    
   3340000   8928.7905     -7525.1726      1840.4267     -6144.7233      4441.6836      2995.8193      951.14918      1628.7477      10740.86      -1812.0694      300.30302      430.60934      140382.45      0.92398543    -7798.2343      1870.2647      30277.515    
   3342000   9216.8467     -7519.825       1876.459      -6145.576       4400.8512      3094.1546      956.17197      1755.7002      10798.911     -1582.0641      301.92606      1096.6559      140969.66      0.92013659    -7758.5523      1874.6216      30295.58     
   3344000   9066.4682     -7560.2305      1862.3324     -6144.5055      4345.5685      3048.5621      958.32236      1743.3698      10813.049     -1746.5807      302.32135     -109.15857      140817.6       0.92113012    -7816.7337      1872.7751      30313.469    
   3346000   8949.3611     -7514.8831      1851.2697     -6142.7885      4361.7358      3034.8219      934.48023      1677.6475      10747.077     -1797.7164      300.47685     -338.84047      141454.57      0.9169823     -7772.531       1880.0381      30331.285    
   3348000   8994.8346     -7595.1934      1877.3057     -6142.5911      4425.631       3060.202       968.67441      1659.3383      10741.468     -1746.6331      300.32001     -592.23356      140281.26      0.92465194    -7830.2357      1868.8802      30349.236    
   3350000   8841.2931     -7554.9663      1859.0372     -6144.3099      4401.8593      3021.5592      962.10628      1656.5644      10639.443     -1798.1499      297.46751      633.09482      140256.68      0.92481397    -7808.0942      1869.0215      30367.126    
   3352000   8963.0376     -7581.679       1859.8601     -6142.362       4433.945       3019.942       966.67887      1656.7236      10749.929     -1786.8914      300.55658     -11.908066      140382.96      0.92398205    -7835.2896      1870.7008      30385.059    
   3354000   9012.7745     -7590.4944      1880.0197     -6144.2811      4397.04        3134.0245      966.93667      1634.8716      10734.658     -1721.8832      300.12961     -280.78563      140574.51      0.92272301    -7829.8217      1877.9734      30402.926    
   3356000   8830.9148     -7598.3923      1850.6768     -6145.8017      4281.54        2998.6062      948.68457      1691.8142      10803.787     -1972.8721      302.06239      513.56039      139611.74      0.92908615    -7867.6864      1870.4274      30420.88     
   3358000   9002.8946     -7514.3563      1884.135      -6143.682       4376.3621      3062.7231      925.80147      1684.0067      10727.905     -1725.01        299.9408       20.135229      140672.1       0.9220829     -7744.904       1877.6113      30438.841    
   3360000   8798.932      -7593.0561      1855.6584     -6145.7561      4318.2362      3015.0701      967.07866      1683.8497      10697.851     -1898.9192      299.10054     -491.26403      139998.77      0.92651769    -7857.7572      1873.0637      30456.812    
   3362000   8902.1395     -7620.5006      1841.0977     -6145.8717      4415.5915      3020.6732      956.21343      1693.9411      10740.995     -1838.8554      300.30679      365.35181      139578.28      0.92930892    -7898.9789      1870.7975      30475.026    
   3364000   9105.0457     -7508.082       1866.8146     -6144.3931      4351.148       3108.2104      953.77903      1658.1391      10819.43      -1714.3839      302.49974     -19.027626      140772.27      0.92142676    -7760.4596      1882.4092      30493.292    
   3366000   9106.4922     -7499.8439      1865.3978     -6145.6258      4401.7524      3148.5896      968.21641      1678.9622      10689.044     -1582.5514      298.85429     -11.065767      141834.99      0.91452282    -7749.6703      1893.5691      30511.513    
   3368000   8974.2117     -7494.7714      1853.6599     -6145.8766      4345.6457      3060.9297      934.87508      1677.47        10742.279     -1768.0675      300.3427       40.840297      141208.72      0.91857882    -7762.3068      1895.1824      30529.749    
   3370000   8859.5001     -7544.3573      1833.2357     -6144.6923      4309.1137      2992.188       980.95461      1712.9969      10720.061     -1860.5607      299.7215       214.11758      140670.34      0.92209444    -7827.7873      1888.3713      30547.803    
   3372000   8728.3334     -7511.8288      1842.9702     -6144.2254      4348.4061      3020.4395      935.40821      1695.3564      10541.807     -1813.4738      294.73771     -5.1441763      141588.34      0.91611594    -7784.3267      1896.9026      30565.891    
   3374000   9152.1951     -7518.4524      1843.6464     -6145.1168      4463.0007      3054.4665      911.92882      1699.9911      10842.731     -1690.5356      303.15122      289.9027       141200.31      0.91863352    -7791.4533      1892.4625      30583.937    
   3376000   8894.6887     -7526.324       1851.944      -6145.9329      4354.2578      3033.5053      932.18462      1706.8348      10688.219     -1793.5305      298.83124      414.0578       141335.58      0.91775431    -7792.0682      1895.3388      30601.831    
   3378000   8803.9822     -7607.1758      1837.0976     -6145.9966      4427.1895      3027.2202      931.29118      1651.2511      10683.105     -1879.1228      298.68825      532.91054      139889.17      0.92724363    -7887.0778      1881.96        30619.871    
   3380000   9127.8064     -7609.6477      1847.4423     -6145.378       4376.961       3090.5333      973.41061      1712.627       10881.858     -1754.0515      304.24517      397.24363      140211.26      0.92511356    -7876.8861      1890.2057      30637.828    
   3382000   9113.6697     -7548.5527      1861.5969     -6145.5148      4570.0405      3050.5727      925.67773      1615.1688      10784.681     -1671.0109      301.5282       361.89841      141221.58      0.91849513    -7809.3932      1905.6299      30655.916    
   3384000   8773.2674     -7506.8433      1839.5679     -6144.2702      4332.7341      3051.4755      929.31774      1624.0137      10647.272     -1874.0047      297.6864      -943.49921      141138.36      0.91903674    -7782.2088      1905.9931      30674.172    
   3386000   8958.2032     -7594.5775      1841.1274     -6145.1566      4453.5967      2976.4556      942.32316      1695.7741      10788.66      -1830.4571      301.63946      39.988052      139656.41      0.92878901    -7870.4438      1892.5722      30692.538    
   3388000   8887.6985     -7614.2147      1820.5655     -6145.6307      4376.0782      3000.1742      934.98993      1690.8251      10824.911     -1937.2125      302.653       -507.17161      139206.57      0.93179037    -7912.6127      1891.26        30710.916    
   3390000   8875.7498     -7509.4452      1870.4        -6144.1878      4298.6502      2998.645       950.68652      1732.3709      10678.63      -1802.8804      298.56314      349.6805       140920.8       0.92045556    -7755.3442      1904.8422      30729.165    
   3392000   8917.1365     -7636.3861      1835.2598     -6144.6588      4452.7842      2973.5545      925.91374      1710.5796      10800.09      -1882.953       301.95901      488.474        139778.59      0.92797717    -7916.5068      1896.1714      30747.273    
   3394000   8777.0193     -7550.2647      1838.1036     -6145.231       4382.3672      3013.612       908.3276       1700.2887      10629.816     -1852.7966      297.19834      479.43968      140787.26      0.92132864    -7828.2902      1909.2925      30765.602    
   3396000   9060.7522     -7583.6821      1855.9751     -6145.5705      4454.8754      3102.0758      938.72326      1632.0699      10806.285     -1745.5332      302.13225      585.39999      140851.29      0.92090983    -7842.8877      1907.992       30783.838    
   3398000   8865.0685     -7539.9379      1818.1554     -6143.6805      4353.7801      3018.503       960.28261      1654.9143      10743.052     -1877.983       300.36429     -74.972926      140726.03      0.92172953    -7834.8584      1912.2406      30802.037    
   3400000   8818.7181     -7579.598       1858.5905     -6144.1013      4328.8531      3077.0202      928.77471      1677.997       10671.182     -1852.4638      298.3549       327.66991      140321.95      0.92438383    -7838.2703      1911.5979      30820.055    
   3402000   8818.4236     -7514.0905      1863.1297     -6143.3075      4339.112       2990.29        950.90751      1691.5778      10640.805     -1822.3809      297.50558     -33.051863      141076.01      0.91944291    -7767.2963      1918.6975      30838.192    
   3404000   8783.4589     -7605.4846      1845.795      -6146.5462      4374.4538      2948.5209      937.44976      1645.2196      10784.051     -2000.5917      301.51058      215.22782      139661.04      0.9287582     -7878.3633      1907.5722      30856.391    
   3406000   8985.5268     -7532.2689      1816.695      -6144.8629      4448.0076      3063.1158      930.85457      1736.8362      10667.149     -1681.6227      298.24215      58.159282      140627.97      0.92237227    -7832.7562      1917.2175      30874.448    
   3408000   9021.2786     -7568.562       1804.9955     -6144.439       4419.6201      3085.386       923.08829      1658.6138      10842.576     -1821.2973      303.14689      486.40037      140116.77      0.92573741    -7879.9491      1917.2356      30892.469    
   3410000   8943.8546     -7492.0857      1858.4168     -6146.1371      4361.2936      3079.2813      918.24308      1609.7394      10755.103     -1811.2487      300.70125     -41.244041      141397.52      0.91735226    -7749.4339      1926.7006      30910.573    
   3412000   8902.7994     -7601.6624      1857.7102     -6144.4315      4392.6494      3016.9978      988.55428      1691.6538      10701.328     -1798.5286      299.19775      275.99285      140258.64      0.92480107    -7860.8426      1921.4145      30928.572    
   3414000   8908.6353     -7502.5644      1876.5707     -6144.8389      4430.0953      3031.7632      957.28338      1720.5497      10539.776     -1631.141       294.68094     -67.391047      142023.36      0.91330985    -7739.2556      1938.8391      30946.463    
   3416000   8970.9439     -7589.8404      1855.3623     -6145.7986      4377.5388      2995.011       995.02397      1639.296       10844.351     -1873.4069      303.19652      389.36911      139997.52      0.92652596    -7849.6898      1921.8026      30964.631    
   3418000   9063.636      -7480.7541      1894.0411     -6145.2383      4391.0426      3074.2052      967.22513      1683.984       10679.13      -1615.4943      298.57713     -185.91188      141967.39      0.91366997    -7700.1743      1936.2803      30982.589    
   3420000   8967.2819     -7518.5685      1851.9255     -6145.8974      4419.019       2976.2406      962.73902      1668.3281      10753.496     -1786.2138      300.6563      -90.712862      141042.42      0.91966185    -7783.5166      1929.7134      31000.424    
   3422000   8810.2775     -7530.532       1840.441      -6145.859       4374.5493      3101.0074      929.5178       1597.1738      10643.979     -1833.7017      297.59434     -577.59128      141132.21      0.91907675    -7810.9181      1930.0682      31018.273    
   3424000   8731.7351     -7632.8971      1844.1952     -6145.7097      4383.0927      3009.349       903.77173      1648.4392      10721.494     -1989.759       299.76157     -1012.2816      139021.22      0.93303263    -7908.5744      1913.6778      31036.312    
   3426000   9040.3989     -7583.1986      1852.9156     -6145.7348      4421.8361      3002.1902      921.50167      1694.8153      10876.073     -1835.6745      304.08344      109.10873      140266.79      0.92474733    -7849.7887      1926.9815      31054.578    
   3428000   9147.0284     -7480.6282      1855.5011     -6145.0136      4369.3597      3045.6226      928.97851      1705.7111      10867.497     -1720.4689      303.84366      46.846952      141662.95      0.91563346    -7745.3086      1941.2881      31073.024    
   3430000   9079.3155     -7503.2613      1890.473      -6143.9381      4310.7649      3037.2286      984.69481      1699.9337      10803.42      -1724.1044      302.05213      17.804976      141150.69      0.91895646    -7731.0625      1939.2937      31091.097    
   3432000   9156.4028     -7491.2032      1867.0828     -6143.2453      4471.0782      2996.9756      959.89661      1747.7742      10748.044     -1591.6411      300.50388      265.74685      141586.35      0.91612881    -7735.918       1946.0517      31109.236    
   3434000   8719.1354     -7623.9723      1853.5682     -6145.057       4410.803       2954.0677      930.42119      1741.8574      10597.447     -1878.3119      296.29335      1.0558423      140257.91      0.92480588    -7882.798       1935.1733      31127.346    
   3436000   8786.3939     -7593.3685      1855.0497     -6144.0729      4363.416       3011.0747      954.0087       1629.4256      10710.86      -1924.4666      299.46427     -477.71981      140165.26      0.92541719    -7851.5604      1936.6148      31145.313    
   3438000   9070.3397     -7526.3329      1843.3542     -6144.5109      4382.1269      2976.2322      957.99483      1714.8339      10866.641     -1796.3016      303.81973      140.88974      141078.35      0.91942765    -7801.0234      1945.1542      31163.392    
   3440000   9048.1994     -7584.2548      1851.8001     -6145.0191      4366.6657      3051.7823      968.78005      1741.5661      10796.879     -1748.6796      301.86925      616.72223      140350.66      0.92419469    -7850.1684      1937.8856      31181.493    
   3442000   8837.3361     -7645.5781      1819.1738     -6146.2766      4407.3443      3000.3684      953.64572      1616.7047      10831.954     -1994.6178      302.84991     -406.53453      139631.17      0.92895689    -7947.7149      1935.7651      31199.502    
   3444000   9004.3788     -7554.3129      1870.4909     -6143.2769      4390.2238      3057.7997      920.46222      1690.3385      10772.653     -1768.2747      301.19193     -412.57583      141006.83      0.91989399    -7799.342       1946.2897      31217.524    
   3446000   8721.1013     -7580.145       1836.893      -6145.6818      4371.3557      3016.4536      949.75887      1664.6789      10607.788     -1886.6866      296.58247     -762.0073       140418.35      0.92374921    -7856.581       1940.8087      31235.682    
   3448000   8896.4767     -7585.8571      1859.3979     -6145.5217      4331.9472      3040.8449      924.96763      1717.1163      10753.582     -1857.1049      300.6587      -46.711186      140200.18      0.9251867     -7842.2971      1939.7847      31253.758    
   3450000   9042.2143     -7583.3762      1864.2248     -6144.453       4409.6429      3109.5788      954.10683      1686.0856      10746.405     -1704.1903      300.45804     -23.823021      140178.76      0.92532804    -7840.1919      1940.602       31272.129    
   3452000   8998.8831     -7555.8431      1856.6247     -6144.5343      4302.5449      3025.7715      938.55687      1706.3799      10869.383     -1870.4995      303.89638     -518.76955      140526.8       0.92303629    -7816.48        1942.4589      31290.6      
   3454000   8931.7067     -7521.5415      1839.6472     -6145.5624      4421.7973      2994.3514      953.2689       1653.7367      10736.009     -1804.3023      300.16739      499.97764      140856.39      0.92087647    -7793.8834      1948.3551      31309.297    
   3456000   8990.1561     -7563.9107      1853.0497     -6146.0428      4384.3771      3038.1956      948.65043      1681.8505      10793.986     -1803.8302      301.78838     -519.66804      140294.63      0.92456378    -7826.0828      1948.4165      31327.792    
   3458000   9066.7722     -7488.8689      1867.7373     -6144.1569      4412.2958      3073.4326      928.15445      1699.3767      10718.801     -1652.0289      299.68628      425.6983       141585.89      0.91613181    -7738.322       1961.472       31346.134    
   3460000   8981.9315     -7499.5121      1821.8794     -6144.7284      4472.3564      3062.1797      963.90206      1689.9369      10615.918     -1633.9861      296.80976     -245.60878      141940.28      0.91384444    -7793.4497      1969.4554      31364.278    
   3462000   9010.9215     -7502.8434      1839.9404     -6143.602       4371.6715      3038.372       917.20256      1673.2552      10816.925     -1806.0038      302.42973      3.2039927      141710.5       0.91532621    -7780.1115      1970.7938      31382.455    
   3464000   8895.8368     -7541.369       1856.4596     -6145.8719      4366.1445      3034.4783      924.9652       1676.5234      10724.507     -1828.6699      299.8458      -70.241232      141342.12      0.91771186    -7804.5234      1965.2812      31400.631    
   3466000   8768.2115     -7570.3696      1824.7055     -6146.3129      4351.8757      3022.477       932.82691      1680.0097      10672.999     -1904.7877      298.4057       624.13625      141017.35      0.9198254     -7862.8502      1962.6768      31418.79     
   3468000   8977.614      -7511.8996      1860.9714     -6145.5023      4306.3778      3049.8038      961.50269      1724.0282      10732.332     -1754.7181      300.06459      2.9216785      141311.86      0.91790837    -7767.661       1965.8176      31437.153    
   3470000   8890.6141     -7526.3332      1824.5607     -6144.092       4379.5319      3090.4781      952.04924      1712.2884      10602.131     -1711.517       296.42431      188.63564      140687.15      0.92198424    -7819.126       1962.04        31455.648    
   3472000   8927.0433     -7460.6521      1907.5884     -6144.5901      4340.7397      3042.5054      886.46733      1691.3151      10663.67      -1736.6262      298.14486      698.89984      142222.59      0.91203051    -7669.8756      1978.9869      31474.096    
   3474000   9089.8292     -7644.096       1884.5831     -6144.7965      4417.2189      3084.4173      936.63998      1708.3637      10847.499     -1757.6695      303.28453     -281.85003      139666.81      0.92871983    -7881.1937      1957.5577      31492.448    
   3476000   8851.4245     -7615.7998      1855.1709     -6142.3172      4408.4149      2970.8899      901.55402      1684.5157      10788.996     -1937.5716      301.64885      16.360875      139429.2       0.93030256    -7875.0195      1956.8333      31510.853    
   3478000   8981.9776     -7480.1862      1863.6766     -6144.0023      4349.2193      3089.6945      934.64771      1683.1603      10685.768     -1703.7901      298.7627      -1056.2073      141759.89      0.91500731    -7735.5882      1975.4001      31528.909    
   3480000   8925.6562     -7540.2235      1846.9747     -6143.4532      4296.0753      2966.3077      971.96705      1656.5639      10871.444     -1945.788       303.95402      521.03356      141039.03      0.91968398    -7806.5015      1968.3308      31546.574    
   3482000   8964.228      -7542.6108      1860.6342     -6143.0516      4411.5043      3092.733       919.68677      1678.3476      10686.984     -1722.7565      298.79672      668.56632      139931.91      0.92696036    -7796.8051      1964.1347      31564.618    
   3484000   8873.149      -7520.9731      1864.4366     -6146.3525      4268.3257      3081.5632      938.77112      1670.1985      10717.179     -1844.0304      299.64094      122.61309      141028.92      0.91974993    -7773.2463      1972.4372      31582.568    
   3486000   9052.3758     -7564.3327      1894.8344     -6144.7137      4432.4375      3013.1135      966.53228      1699.2127      10755.292     -1702.9161      300.70652     -225.45596      140975.51      0.92009839    -7787.2408      1970.2211      31600.457    
   3488000   9182.0944     -7549.6894      1860.8935     -6145.5061      4456.6987      3025.6379      968.41859      1697.6229      10868.018     -1685.9238      303.85823      344.35239      141124.87      0.91912457    -7804.7912      1970.5875      31618.272    
   3490000   8754.4655     -7517.2937      1855.7434     -6144.6465      4311.1711      3016.4002      950.44646      1676.3557      10606.289     -1851.8233      296.54056     -263.63981      140891.89      0.92064449    -7775.2741      1972.5904      31636.206    
   3492000   8884.1531     -7571.963       1850.8787     -6144.5569      4397.5528      3017.0188      948.19518      1727.1583      10659.869     -1775.7161      298.0386      -639.46058      140678.32      0.92204212    -7834.9398      1972.8966      31654.146    
   3494000   9103.7511     -7540.6867      1849.103      -6145.1972      4461.177       3010.9083      986.7491       1701.3154      10780.382     -1676.6311      301.40802      537.14726      140331.25      0.92432252    -7806.2003      1973.5272      31672.293    
   3496000   8886.9999     -7534.7244      1850.5367     -6146.6803      4365.0127      3098.0529      942.20347      1654.4117      10658.187     -1771.1874      297.99158      578.98087      140686.47      0.9219887     -7805.7964      1982.3372      31690.368    
   3498000   8815.5045     -7582.74        1823.7858     -6143.9712      4416.6173      3080.577       940.53033      1654.2163      10626.489     -1810.9844      297.10533      652.92548      139755.43      0.92813095    -7874.2067      1975.3172      31708.618    
   3500000   8878.9245     -7671.8998      1860.0448     -6144.798       4445.0234      3017.1496      983.49433      1696.7396      10693.171     -1814.2461      298.96967      315.6482       139296.41      0.93118936    -7923.9411      1968.2976      31726.875    
   3502000   9026.4456     -7510.8614      1852.9377     -6145.8057      4309.2211      3138.626       929.79771      1728.1906      10724.339     -1697.8939      299.84112     -1095.3513      141581.8       0.91615826    -7776.7824      1989.2341      31745.137    
   3504000   8949.0082     -7514.8702      1853.5593     -6144.3327      4310.8295      2987.4336      979.56289      1655.1138      10821.712     -1872.7039      302.56356     -931.38309      141143.19      0.91900529    -7778.341       1985.1452      31763.372    
   3506000   8950.5216     -7569.7247      1841.1938     -6146.0543      4368.0179      3073.5242      965.06729      1688.998       10729.499     -1778.9778      299.98539     -250.25453      140988.37      0.92001442    -7845.301       1982.3822      31781.541    
   3508000   8870.4812     -7570.4431      1889.454      -6144.7695      4362.0028      3012.2553      934.38543      1691.1676      10696.429     -1825.9476      299.06077      967.8396       140471.44      0.92340004    -7795.8672      1980.3081      31799.73     
   3510000   8901.599      -7604.5539      1841.1106     -6143.7966      4401.4536      3100.9045      961.34297      1727.8821      10617.256     -1715.6567      296.84718      388.07598      140124.94      0.92568346    -7880.8104      1978.208       31817.923    
   3512000   9004.0328     -7569.9726      1864.2985     -6144.8208      4375.0512      2998.4601      938.84251      1703.0234      10839.15      -1835.1176      303.05112      116.69572      140473.29      0.92338793    -7820.3183      1987.2569      31836.002    
   3514000   8932.1231     -7544.2759      1868.7972     -6145.4717      4392.6616      3047.0397      900.31537      1690.5061      10722.551     -1790.4276      299.79111     -226.42861      141101.65      0.91927587    -7790.1425      1995.2422      31853.75     
   3516000   9076.0686     -7595.8546      1849.5832     -6144.0508      4375.4443      3082.5943      949.20728      1682.6942      10876.451     -1800.382       304.09399     -327.46041      140013.85      0.92641791    -7865.7676      1990.2976      31871.484    
   3518000   8874.6046     -7545.0223      1852.5463     -6143.9991      4395.1833      2992.6583      969.33076      1697.8043      10656.103     -1781.4983      297.9333       888.48192      140841.89      0.92097131    -7807.1709      2003.4573      31889.422    
   3520000   9030.7441     -7515.8273      1854.3311     -6143.7231      4413.7454      3059.1942      908.15547      1720.1507      10734.718     -1703.9736      300.13129     -299.96681      141148.41      0.91897132    -7777.0248      2000.7536      31907.424    
   3522000   8976.7611     -7497.4154      1861.1183     -6144.6045      4359.377       3090.6365      914.31869      1649.5028      10743.828     -1767.0665      300.38599     -743.86193      141907.45      0.9140559     -7755.9267      2008.3204      31925.533    
   3524000   9154.8096     -7589.9837      1857.2968     -6144.3135      4344.0815      3131.8074      927.97993      1697.7911      10930.15      -1775.3405      305.59537      730.26702      140285.78      0.92462212    -7847.6402      1992.9818      31943.557    
   3526000   8905.7103     -7619.8636      1861.1326     -6144.7688      4387.7253      3010.0224      954.04755      1672.4034      10785.011     -1879.3012      301.53745     -54.983556      140201.5       0.92517798    -7872.1551      1994.6911      31961.602    
   3528000   9082.7078     -7480.451       1852.4498     -6143.404       4371.6641      3034.9191      938.03935      1698.4229      10811.067     -1728.3597      302.26595     -159.71295      141760.4       0.91500406    -7744.7149      2011.4509      31979.95     
   3530000   9078.8395     -7547.3438      1866.1        -6142.61        4466.4767      3107.2482      987.2553       1680.881       10660.832     -1581.9925      298.06552      251.20301      141378.66      0.91747463    -7792.4744      2006.4876      31998.234    
   3532000   8814.5485     -7551.1645      1874.0578     -6143.0215      4334.3283      3063.1359      933.04641      1662.2511      10641.915     -1827.3666      297.53663     -567.66272      141169.26      0.91883557    -7795.9609      2003.6669      32016.73     
   3534000   8989.4554     -7561.2108      1867.1223     -6143.3425      4343.1878      3000.8638      919.88546      1724.45        10838.499     -1849.044       303.03292     -261.79463      140599.66      0.92255797    -7811.06        1998.6037      32034.938    
   3536000   9097.6666     -7584.8728      1848.4383     -6144.3873      4460.2488      3040.3287      960.0754       1689.3125      10828.523     -1730.8565      302.75399     -556.62031      140312.68      0.92444486    -7852.0593      1995.903       32053.364    
   3538000   9251.7078     -7498.6395      1850.0729     -6144.6856      4358.0524      3118.7858      989.04998      1715.1722      10863.9       -1612.1918      303.74308      262.39163      141215.35      0.9185357     -7766.1809      2008.4809      32071.612    
   3540000   8920.8541     -7578.3857      1897.8257     -6143.9078      4307.2852      3044.5431      940.3657       1660.7774      10792.351     -1871.4964      301.74264      499.3118       140436.79      0.92362789    -7794.9801      2002.3808      32089.806    
   3542000   9000.2522     -7541.7944      1876.3313     -6142.3556      4382.1508      3009.1439      977.86529      1677.4773      10761.434     -1761.1815      300.87824     -5.7698947      141423.08      0.9171865     -7780.1869      2013.5389      32108.126    
   3544000   8900.2495     -7543.2324      1860.9995     -6144.4043      4396.1484      2974.1252      963.53201      1656.3007      10736.78      -1836.5309      300.18896      232.77275      140623.51      0.92240148    -7799.229       2007.3231      32126.492    
   3546000   8955.4353     -7576.2815      1851.7999     -6145.2687      4409.0887      3066.2308      958.64356      1674.9469      10716.276     -1760.8403      299.61567     -807.49355      140720.07      0.92176854    -7844.7554      2006.0325      32144.75     
   3548000   8890.25       -7565.8765      1851.1356     -6145.498       4458.473       3080.6804      926.85985      1647.7482      10636.727     -1746.4775      297.39158     -25.423695      140290.74      0.92458947    -7826.3072      2002.4732      32163.164    
   3550000   9029.5359     -7559.6269      1877.5744     -6144.2518      4501.1836      3046.8634      945.55983      1708.7524      10653.481     -1623.9449      297.85999      379.81092      141123.91      0.91913086    -7799.9947      2006.8502      32181.615    
   3552000   9017.3359     -7524.7642      1846.5012     -6144.7336      4374.3469      3020.2256      945.15234      1724.1825      10776.425     -1759.0893      301.29739     -753.73243      141575.64      0.91619814    -7796.1035      2012.8792      32200.209    
   3554000   8899.7221     -7483.6321      1901.3132     -6144.1685      4291.783       3005.6996      975.07787      1640.9427      10712.706     -1812.9841      299.51587      213.79189      142086.83      0.91290193    -7695.4376      2020.5773      32218.482    
   3556000   8793.2993     -7577.6541      1839.8711     -6145.3287      4356.4606      3054.6978      947.23968      1684.7102      10633.303     -1840.0034      297.29583     -2.0232232      139754.99      0.92813388    -7855.5373      1999.1489      32236.682    
   3558000   9089.6289     -7514.7022      1837.274      -6146.4238      4404.4472      2962.4014      975.47448      1681.8382      10889.32      -1799.6907      304.45379      104.46673      140751.68      0.92156154    -7794.8879      2013.4519      32254.888    
   3560000   8985.7031     -7554.5535      1848.3154     -6145.0434      4389.9334      3066.7157      927.04617      1709.2693      10744.02      -1758.317       300.39137      401.46458      140809.4       0.92118382    -7821.2373      2010.1999      32272.862    
   3562000   8960.0337     -7563.6941      1844.3051     -6145.3922      4346.3283      3123.3197      939.83102      1736.2566      10679.079     -1719.0455      298.5757      -300.28297      140823.16      0.92109378    -7837.0564      2013.8823      32291.042    
   3564000   8975.7743     -7578.6192      1851.7176     -6145.6218      4376.1881      3089.1162      991.08496      1678.4956      10713.413     -1737.6384      299.53562     -141.75827      140405.6       0.9238331     -7844.3062      2010.3074      32309.346    
   3566000   8836.0613     -7549.0605      1839.5728     -6144.2733      4302.3929      3049.5862      916.65655      1734.5596      10686.627     -1850.5656      298.78672     -446.29854      140493.48      0.92325519    -7824.0603      2009.4672      32327.529    
   3568000   8899.764      -7594.5225      1831.9243     -6144.7055      4441.9099      3057.7667      964.63181      1675.5787      10667.181     -1767.4165      298.24302      72.020963      140308.22      0.92447426    -7876.4186      2008.9723      32346.015    
   3570000   8840.1837     -7547.8304      1852.5278     -6143.0224      4281.7153      3022.948       987.95549      1680.7877      10705.102     -1864.9186      299.30327     -91.325241      141339.81      0.91772681    -7804.8171      2017.8032      32364.121    
   3572000   8743.3668     -7575.9034      1815.3078     -6145.5935      4251.9074      3018.5443      925.0415       1646.1868      10807.876     -2064.509       302.17671      805.7496       140416.31      0.92376262    -7879.6159      2012.0658      32382.501    
   3574000   8909.371      -7630.9908      1867.6832     -6144.7094      4385.7085      3057.1835      961.63074      1650.1463      10762.719     -1853.3478      300.91417     -223.09319      140016.64      0.92639947    -7879.0879      2007.7195      32400.895    
   3576000   8771.9375     -7554.6805      1862.1414     -6143.7471      4381.2512      3034.5723      901.04002      1666.9318      10624.428     -1852.4909      297.04772     -723.2013       141088.56      0.91936114    -7812.4272      2015.6105      32419.147    
   3578000   8976.6121     -7488.493       1879.6821     -6142.6999      4406.4504      3019.0503      956.11683      1668.3384      10678.167     -1701.5549      298.55019      550.00351      142192.22      0.9122253     -7721.2185      2023.18        32437.401    
   3580000   8859.2778     -7533.688       1862.5624     -6143.0787      4340.789       2995.0071      929.87196      1698.3594      10709.455     -1850.1768      299.42496     -91.57997       141268.41      0.9181907     -7788.6612      2016.1964      32455.695    
   3582000   8907.6304     -7511.5266      1850.4266     -6144.9813      4302.0988      3108.8848      913.8446       1722.6301      10666.253     -1758.623       298.2171       705.64303      140585.42      0.92265144    -7782.6631      2011.9771      32474.087    
   3584000   9031.3112     -7539.9743      1861.0687     -6143.8974      4512.4908      3060.6913      925.14996      1686.3685      10669.414     -1638.1024      298.30546     -171.67694      140598.44      0.92256597    -7798.1635      2016.0636      32492.418    
   3586000   8933.4905     -7567.2381      1882.0039     -6145.6147      4368.3515      3029.5693      944.22979      1740.588       10681.601     -1748.1103      298.6462      -230.64101      140957.9       0.92021329    -7800.3657      2021.6549      32510.588    
   3588000   9007.2401     -7582.4826      1880.8162     -6143.099       4394.4227      2982.3091      935.74656      1681.4627      10858.064     -1850.8243      303.57993      254.46492      140341.88      0.92425256    -7816.3321      2017.2626      32528.814    
   3590000   9162.0138     -7510.589       1894.1218     -6145.1826      4383.8593      3030.7855      961.34339      1735.1215      10812.554     -1650.5401      302.30751     -235.91581      142131.4       0.91261561    -7730.5083      2032.9979      32547.184    
   3592000   9080.2796     -7577.9893      1867.5157     -6144.8024      4419.522       3060.5912      928.59559      1706.5073      10820.339     -1740.0599      302.52518     -1080.7895      140262.22      0.92477747    -7831.6096      2021.0862      32565.469    
   3594000   8935.5788     -7607.5266      1831.4581     -6145.2888      4323.5226      3092.9012      989.23033      1696.4885      10754.793     -1819.2147      300.69258      184.90261      139400.25      0.9304957     -7890.001       2019.953       32583.682    
   3596000   8878.4087     -7588.3734      1830.243      -6145.9582      4384.72        3061.6343      937.6599       1674.5229      10723.96      -1845.5516      299.83052      390.79006      140643.56      0.92226999    -7876.1699      2033.2125      32601.897    
   3598000   9033.9446     -7478.3075      1867.4984     -6144.1146      4321.5938      3110.7095      990.01456      1681.5482      10685.002     -1651.0576      298.74129      639.71157      141440.56      0.91707316    -7723.0227      2042.5299      32620.075    
   3600000   8742.2875     -7530.8609      1877.6362     -6144.7752      4234.2689      3028.5682      982.7753       1700.0362      10594.639     -1852.3513      296.21483     -1154.0865      140894.35      0.92062836    -7771.6792      2041.696       32638.268    
   3602000   8915.0009     -7584.56        1846.8864     -6144.9729      4423.5435      3046.714       902.07521      1662.0972      10763.218     -1848.2167      300.92811      573.05125      140624.35      0.92239598    -7859.3218      2037.2608      32656.62     
   3604000   8996.8906     -7556.3118      1843.4635     -6145.1595      4321.8736      3165.5898      957.50501      1722.2371      10687.693     -1690.8022      298.81652     -550.92505      140067.24      0.92606479    -7834.3979      2035.135       32674.803    
   3606000   9069.7321     -7451.7738      1907.0155     -6144.0431      4411.8365      3035.6018      907.77021      1718.5887      10684.736     -1615.0042      298.73386      59.210434      141838.69      0.91449899    -7660.352       2052.2328      32693.234    
   3608000   9144.3468     -7502.7949      1872.0929     -6144.6549      4337.9068      3029.5209      954.3466       1718.544       10879.385     -1735.0386      304.17604     -851.35986      140982.34      0.92005381    -7749.6321      2040.8334      32711.649    
   3610000   9029.7712     -7543.3835      1843.98       -6144.5949      4417.5684      3076.3415      940.089        1690.3702      10749.4       -1719.6293      300.5418      -589.71294      140993.94      0.91997809    -7815.8626      2040.1312      32729.854    
   3612000   8937.3085     -7604.9108      1815.155      -6144.9494      4431.9142      3068.8884      956.46646      1659.6538      10755.091     -1817.7823      300.7009       51.646671      139954.6       0.92681011    -7906.8148      2031.2545      32747.88     
   3614000   8775.3014     -7546.8265      1847.7828     -6145.0548      4256.9671      3023.5895      978.73577      1647.454       10712.654     -1937.3522      299.5144       771.88252      141214.11      0.91854373    -7818.8751      2043.2461      32765.873    
   3616000   8818.1275     -7627.2208      1868.3392     -6144.1005      4420.4801      3075.4685      900.54175      1707.0236      10617.596     -1799.4683      296.85669     -1066.0473      139733.91      0.92827385    -7876.7345      2028.3411      32783.727    
   3618000   8985.3803     -7547.5857      1825.7261     -6143.376       4432.8293      3063.045       932.58686      1742.2433      10679.911     -1694.5311      298.59896     -49.3134        140474.39      0.92338068    -7837.6001      2036.5382      32801.589    
   3620000   8945.7932     -7527.7658      1886.9063     -6144.6419      4340.2991      3010.0995      920.35801      1671.9277      10788.61      -1842.8171      301.63807     -312.11243      141602.4       0.916025      -7758.7469      2047.5129      32819.468    
   3622000   9013.0541     -7570.6009      1847.3446     -6146.0684      4358.93        3093.5484      954.29363      1683.7089      10791.898     -1778.8437      301.72998     -489.17725      140706.71      0.9218561     -7840.2848      2035.9797      32837.183    
   3624000   8935.517      -7574.1468      1838.5807     -6146.0754      4361.9027      3039.2056      966.78567      1680.0215      10769.243     -1833.726       301.09658     -302.54817      139892.29      0.92722295    -7852.5513      2031.3361      32855.125    
   3626000   9076.952      -7534.2587      1847.9859     -6145.1909      4338.9662      3049.7228      951.71584      1693.8237      10874.187     -1797.235       304.0307       717.44454      140565.25      0.9227838     -7800.1826      2038.7013      32873.332    
   3628000   9048.8999     -7487.7258      1846.9522     -6145.2095      4388.8422      3026.9525      932.12529      1753.1942      10733.769     -1684.8689      300.10476     -684.70053      141482.36      0.9168022     -7756.5926      2046.9271      32891.471    
   3630000   8714.2719     -7578.5571      1846.5355     -6145.2672      4369.3777      3050.8883      950.04857      1679.3316      10541.914     -1827.6426      294.74072     -560.41016      140760.05      0.92150674    -7848.3478      2043.0799      32909.68     
   3632000   8869.6788     -7502.6372      1837.4267     -6146.6607      4406.0045      3020.8196      943.72317      1666.911       10644.092     -1774.413       297.59748     -483.05288      141701.27      0.91538586    -7784.7669      2050.9338      32927.724    
   3634000   9169.0473     -7498.494       1859.0879     -6144.934       4442.3809      3129.3618      955.59993      1642.8157      10783.229     -1614.1818      301.48762      958.03935      140984.96      0.92003668    -7762.2605      2048.8663      32945.828    
   3636000   8888.0739     -7551.0794      1868.0759     -6145.7265      4357.9242      2979.6795      948.10197      1717.5235      10713.575     -1825.5008      299.54015      113.7945       140680.95      0.92202491    -7802.0016      2046.6507      32963.911    
   3638000   9081.0203     -7538.059       1858.5082     -6144.1672      4404.952       3022.7042      966.87646      1688.3807      10821.825     -1740.8047      302.56672     -449.79076      140709.07      0.92184061    -7795.5957      2051.6971      32981.998    
   3640000   9080.4114     -7535.649       1841.9916     -6145.0083      4394.1291      3088.4754      953.68405      1735.3179      10747.471     -1667.0592      300.48785     -775.15181      140655.18      0.92219379    -7812.0396      2052.6649      33000.043    
   3642000   8914.979      -7525.4028      1843.0564     -6145.1683      4347.2907      3028.5532      961.4746       1718.8124      10686.363     -1771.3838      298.77934     -330.51228      141185.75      0.91872823    -7798.2911      2061.3304      33017.895    
   3644000   8890.1938     -7589.4         1845.6483     -6145.2437      4390.5854      3023.0468      952.95008      1649.8308      10762.776     -1872.5823      300.91577     -863.48568      140367.62      0.92408304    -7862.5465      2052.2521      33035.916    
   3646000   8921.3782     -7558.3501      1861.247      -6145.0079      4295.4236      3000.0836      904.8795       1614.5829      10948.52      -2027.1414      306.10896     -384.52132      141005.62      0.91990187    -7818.591       2062.4727      33053.927    
   3648000   9101.8872     -7660.8995      1863.1166     -6145.6596      4455.473       3080.3487      946.19489      1682.1225      10881.191     -1779.3033      304.22651      251.50962      139505.17      0.92979593    -7910.7594      2052.2021      33071.973    
   3650000   9073.8318     -7511.512       1855.4009     -6143.5625      4411.8625      2967.0602      982.09973      1677.0129      10835.47      -1761.6383      302.94822      657.90129      140848.34      0.9209291     -7768.0128      2063.5285      33090.135    
   3652000   8727.2958     -7582.0846      1852.9432     -6145.1763      4325.4454      2962.321       954.928        1630.5821      10728.337     -2001.0413      299.95289      256.31603      140223.15      0.92503512    -7848.3083      2062.2681      33108.269    
   3654000   9092.1885     -7471.4774      1864.4268     -6144.5797      4356.3961      2989.3945      992.94365      1661.611       10843.474     -1751.2852      303.17199     -99.734334      141694.96      0.91542659    -7716.9543      2074.8404      33126.212    
   3656000   9063.5602     -7557.5869      1859.2025     -6143.7144      4458.5329      3106.1216      938.11152      1658.1701      10744.723     -1681.1627      300.41102      163.11745      140267         0.9247459     -7816.0379      2065.9281      33144.291    
   3658000   9081.0888     -7589.9798      1852.8249     -6144.2105      4399.817       3027.6181      918.8275       1721.1906      10895.001     -1813.912       304.61263      671.81715      140093.83      0.925889      -7855.5791      2065.2825      33162.642    
   3660000   8953.448      -7558.2084      1866.9424     -6144.9339      4379.5145      2972.2602      935.96743      1727.5416      10774.364     -1820.9162      301.23976     -79.796854      140167.44      0.9254028     -7806.4407      2070.8804      33180.941    
   3662000   8960.5149     -7539.3384      1849.0233     -6143.8713      4340.8234      3082.7216      932.34217      1704.7097      10734.104     -1773.5895      300.11414      17.363087      140359.01      0.92413975    -7807.91        2071.2618      33199.261    
   3664000   9032.7565     -7553.6063      1876.096      -6145.043       4434.578       3057.0038      960.03531      1653.0272      10750.665     -1717.9089      300.57717      39.732388      140656.84      0.92218293    -7792.8079      2075.9149      33217.598    
   3666000   9094.4969     -7472.1927      1833.5249     -6143.8335      4379.8996      3073.1469      926.41307      1635.1153      10862.423     -1767.9265      303.7018      -177.27658      141893.4       0.91414638    -7757.9321      2084.0165      33236.161    
   3668000   9091.1467     -7520.3152      1852.2642     -6143.9413      4417.6935      3030.9248      959.4745       1695.8699      10799.176     -1708.0296      301.93348     -57.222769      141322.98      0.9178361     -7778.8276      2083.8684      33254.585    
   3670000   8759.1177     -7653.8232      1872.8227     -6144.1035      4331.39        3002.9803      918.46881      1595.0557      10836.327     -2077.2091      302.97217      450.2831       139553.72      0.92947242    -7899.7777      2068.354       33272.826    
   3672000   8834.6869     -7516.9872      1868.8375     -6143.6907      4291.2525      3046.974       972.52464      1638.486       10677.29      -1842.6033      298.52568     -737.48193      140908.05      0.92053888    -7768.7946      2079.046       33291.135    
   3674000   9017.7067     -7619.4183      1843.2302     -6144.998       4373.3348      3049.6656      961.41026      1696.6329      10857.849     -1840.1425      303.57391     -227.64315      140027.07      0.92633044    -7893.372       2071.0014      33309.477    
   3676000   9060.4751     -7589.6696      1841.3014     -6143.8857      4472.6313      3050.9663      978.94602      1682.3448      10767.841     -1707.3655      301.05737     -248.56257      139643.01      0.92887816    -7863.962       2069.0728      33327.658    
   3678000   9137.8837     -7485.3273      1856.6869     -6143.9303      4382.1651      3031.992       912.60269      1664.5317      10919.163     -1781.2792      305.28818     -515.60416      141675.01      0.91555551    -7748.4757      2089.1963      33345.825    
   3680000   9073.429      -7520.9541      1867.1047     -6142.9236      4375.1113      3039.8473      978.46967      1638.5068      10838.267     -1764.8379      303.02642     -174.24608      141661.31      0.91564403    -7767.2295      2089.9983      33364.181    
   3682000   9195.4998     -7432.0305      1870.0689     -6145.1575      4459.8922      2990.3699      942.01532      1701.4177      10808.924     -1613.424       302.20601     -478.23148      142172.76      0.91235016    -7680.0898      2094.5092      33382.502    
   3684000   8877.0933     -7582.3323      1823.6986     -6144.8229      4434.4353      2997.0789      948.03121      1679.0595      10721.945     -1844.8516      299.77417      750.18115      140060.42      0.92610986    -7872.0069      2076.9357      33400.758    
   3686000   8860.0832     -7564.2899      1831.5788     -6142.668       4416.1695      3034.2862      936.77715      1668.1446      10680.085     -1820.0017      298.60381      587.34717      140377.06      0.92402087    -7848.768       2079.4164      33418.952    
   3688000   9124.3586     -7529.2586      1878.4217     -6143.0657      4434.3991      3140.3685      968.64489      1715.0961      10659.753     -1535.394       298.03534      31.611132      141065.02      0.91951452    -7765.1893      2087.4945      33437.067    
   3690000   8858.3133     -7559.6173      1891.5465     -6143.0583      4358.7737      3012.3413      948.2945       1636.45        10713.583     -1855.2695      299.54038      4.1905965      140713.05      0.92181457    -7781.3441      2091.3251      33455.387    
   3692000   8863.6386     -7548.145       1861.1286     -6145.6094      4296.6343      3061.4179      981.69024      1650.0582      10706.464     -1842.8252      299.34134     -232.43327      141854.15      0.9143993     -7802.5294      2100.3777      33473.808    
   3694000   8893.69       -7589.9502      1874.8489     -6145.2953      4290.0782      3017.0262      925.70487      1686.6064      10834.671     -1940.981       302.92588     -644.526        140660.48      0.92215908    -7833.0586      2089.6592      33492.03     
   3696000   8856.9394     -7601.7272      1860.2636     -6143.849       4350.8212      3066.62        949.61871      1608.8721      10766.32      -1909.3806      301.01485      729.64442      139989.77      0.92657724    -7857.6358      2087.4912      33510.38     
   3698000   8959.5263     -7533.8944      1824.6329     -6145.3284      4381.7106      3045.928       969.56545      1718.8496      10698.063     -1738.5364      299.10645     -28.076326      141267.74      0.91819501    -7822.9928      2099.6912      33528.436    
   3700000   8992.2735     -7539.411       1870.8951     -6143.2652      4383.5048      3100.0508      971.85348      1661.277       10687.369     -1695.095       298.80746     -403.8596       140765.21      0.92147301    -7786.0298      2097.1991      33546.604    
   3702000   8886.8246     -7633.2284      1841.6707     -6142.4332      4419.5632      3056.9194      968.44613      1686.3605      10689.526     -1802.7018      298.86779      567.70909      139860.79      0.92743176    -7905.1438      2090.3655      33564.758    
   3704000   9283.3829     -7480.0048      1907.582      -6142.945       4448.9968      2995.2657      979.99211      1665.0235      10909.473     -1626.0897      305.01725      605.75022      142358.56      0.91115936    -7686.4855      2115.3193      33582.794    
   3706000   9059.32       -7494.258       1861.9339     -6142.9208      4366.7125      3064.7682      958.92144      1681.4936      10762.669     -1703.3492      300.91278     -147.03555      141253.55      0.9182873     -7749.2707      2106.7928      33600.585    
   3708000   8897.4632     -7531.157       1850.2577     -6143.684       4348.3197      3040.1643      983.39622      1684.7694      10665.397     -1767.9337      298.19315     -261.94194      140914.98      0.92049363    -7797.4038      2104.0376      33618.441    
   3710000   8980.8938     -7600.4768      1858.9082     -6144.1619      4333.1443      3064.7918      966.73212      1691.5889      10810.367     -1829.4734      302.24637     -81.056203      140523.83      0.92305578    -7859.5957      2104.5663      33636.294    
   3712000   9074.5524     -7580.123       1852.0811     -6144.5768      4481.819       3008.477       968.91558      1694.4031      10793.556     -1719.004       301.77635     -384.64983      140267.92      0.92473987    -7844.0109      2098.4566      33654.031    
   3714000   8905.8742     -7529.1263      1846.0085     -6144.3599      4413.1942      3031.1321      951.41498      1694.0759      10643.535     -1737.6606      297.58191     -183.64809      141046.54      0.91963499    -7799.5722      2106.8634      33671.743    
   3716000   8877.7928     -7574.3359      1867.7066     -6145.6911      4384.3275      3056.8097      951.24008      1672.0894      10665.646     -1787.8537      298.20013      607.19264      140552.77      0.92286576    -7825.4169      2099.6844      33689.455    
   3718000   9110.5899     -7467.4003      1866.7205     -6145.2056      4423.415       3087.4835      932.75684      1654.7091      10758.111     -1647.521       300.78534      249.11755      140927.57      0.92041137    -7724.5479      2107.0223      33707.331    
   3720000   8857.7654     -7542.1099      1825.5476     -6144.8551      4360.2536      3062.719       915.93545      1659.2551      10721.02      -1863.2543      299.74831     -313.46356      140143.84      0.92555862    -7834.0117      2102.7614      33725.171    
   3722000   8810.7851     -7616.5774      1862.8865     -6146.502       4324.3794      3030.249       966.882        1648.731       10740.737     -1929.9516      300.29957      862.6148       140196.09      0.92521364    -7873.9013      2108.3067      33743.01     
   3724000   8909.6811     -7624.586       1822.3197     -6145.2914      4410.1829      3040.387       958.11153      1727.5467      10721.011     -1811.3296      299.74806     -166.83323      139482.77      0.92994523    -7916.7158      2105.8718      33760.801    
   3726000   8932.2041     -7585.3486      1858.4602     -6142.7481      4374.7029      3070.7895      958.55783      1721.6933      10676.097     -1743.893       298.49232      1122.5518      140579.36      0.92269119    -7842.906       2116.1918      33778.78     
   3728000   9000.3197     -7618.8163      1832.1776     -6143.2532      4412.1689      3088.9928      959.92793      1661.5074      10807.615     -1807.2949      302.16941     -730.04007      140460.05      0.92347496    -7900.3432      2114           33796.93     
   3730000   9036.737      -7566.2872      1841.2328     -6144.9091      4430.8905      3101.8194      948.86202      1678.4277      10746.701     -1709.964       300.46633      454.80526      140825.79      0.92107661    -7845.291       2119.2789      33814.977    
   3732000   8908.5339     -7624.1387      1821.3408     -6145.9353      4414.3799      3002.0216      956.59854      1674.5632      10809.704     -1901.17        302.22782      833.6016       139971.34      0.92669928    -7917.4284      2111.0031      33833.219    
   3734000   8992.6783     -7487.3011      1856.7608     -6146.4824      4377.8844      2986.9304      966.90949      1635.8929      10802.084     -1809.4056      302.01477      841.20148      141270.34      0.91817814    -7747.219       2121.7444      33851.219    
   3736000   8986.6042     -7513.2864      1877.444      -6144.8575      4304.8432      3055.7027      980.002        1690.7456      10736.011     -1749.4064      300.16744     -303.89921      140850.24      0.92091668    -7754.3273      2121.1274      33869.363    
   3738000   9412.8356     -7417.5592      1896.1256     -6145.8521      4416.9317      3089.5231      993.0968       1690.1528      10890.417     -1477.5813      304.48447     -154.23886      142093.31      0.91286027    -7639.1871      2132.6606      33887.349    
   3740000   8940.1065     -7535.257       1867.0846     -6145.5254      4393.9781      3018.0265      957.31472      1688.6893      10695.796     -1755.6892      299.04307      727.48414      140461.84      0.92346315    -7786.746       2117.8987      33905.217    
   3742000   8936.7411     -7564.8362      1864.2452     -6144.154       4377.7587      2977.7353      962.5666       1719.024       10744.402     -1807.6604      300.40204      652.53341      141140.7       0.91902147    -7811.9213      2117.589       33923.153    
   3744000   8682.0109     -7559.7675      1845.9957     -6144.7806      4226.8206      3042.9823      1021.2641      1645.9956      10603.501     -1921.4899      296.4626      -93.035076      140493.68      0.92325391    -7831.4727      2113.7686      33941.417    
   3746000   9002.3792     -7571.1586      1877.5885     -6144.3572      4365.5101      3051.7735      982.5809       1635.6205      10804.821     -1802.4423      302.09132      208.54712      140521.15      0.92307341    -7809.1049      2114.3324      33959.631    
   3748000   9043.5221     -7544.8579      1860.2849     -6146.1059      4428.2175      3051.1338      936.23607      1702.598       10756.016     -1712.4936      300.72676      636.01087      140380.16      0.92400052    -7798.4151      2114.3545      33977.754    
   3750000   8953.2565     -7546.9901      1805.5364     -6145.715       4305.8322      3068.9337      986.62917      1670.2716      10808.759     -1855.5021      302.20139      1227.7073      140426.49      0.92369567    -7860.0761      2115.6374      33995.652    
   3752000   9075.0595     -7518.7841      1870.1023     -6145.3217      4346.0945      3111.8956      953.75344      1669.2187      10788.101     -1713.0413      301.62382      326.0491       141317.27      0.91787324    -7766.1229      2124.0915      34013.553    
   3754000   8880.2837     -7595.944       1836.85       -6144.6394      4301.3024      3094.5116      976.70504      1670.2678      10741.23      -1860.9465      300.31337     -235.19479      139741.72      0.92822196    -7873.5513      2115.1807      34031.487    
   3756000   8812.1638     -7588.3168      1861.9359     -6144.8892      4365.4705      3056.9278      957.09662      1688.4393      10615.5       -1803.3359      296.79808     -317.6013       140023.1       0.9263567     -7845.8873      2118.3041      34049.445    
   3758000   8927.3307     -7472.5968      1878.3791     -6143.5889      4289.5147      3088.1855      996.17545      1680.0956      10611.166     -1683.8353      296.67692     -630.68576      141848.32      0.91443688    -7709.2553      2137.3335      34067.221    
   3760000   8836.4371     -7510.9079      1851.4154     -6145.3586      4435.9179      2978.839       951.22766      1645.5334      10629.77      -1793.3331      297.19707     -40.422009      141221.02      0.91849879    -7777.5306      2133.3518      34085.394    
   3762000   8993.0923     -7552.3056      1868.8231     -6144.2885      4414.3511      3092.4901      931.33598      1715.8256      10666.86      -1673.7681      298.23407     -237.84241      141122.5       0.91914001    -7804.6962      2133.9265      34103.668    
   3764000   8728.6395     -7641.1452      1859.53       -6143.89        4317.4258      3032.7033      945.7536       1710.4253      10647.837     -1919.1973      297.70219      86.273065      139564.15      0.92940301    -7899.1264      2116.9795      34121.926    
   3766000   9071.8757     -7591.0921      1845.9996     -6144.5438      4364.4684      2997.1475      976.18733      1700.2564      10923.452     -1851.5766      305.40811     -1018.554       140613.41      0.92246778    -7859.9689      2129.7395      34140.105    
   3768000   8816.9904     -7593.085       1841.072      -6144.1256      4321.667       3015.7813      978.08837      1647.9331      10749.659     -1932.6689      300.54904     -396.17493      140360.6       0.92412924    -7868.4662      2127.2688      34158.183    
   3770000   8863.8241     -7537.0128      1855.1616     -6143.3289      4349.6925      2988.8675      956.63098      1642.6119      10751.201     -1887.3773      300.59216     -68.277588      140737.38      0.92165519    -7799.9403      2128.1141      34176.374    
   3772000   8746.8089     -7628.778       1818.416      -6144.826       4285.899       3009.7292      972.48822      1663.0627      10770.818     -2024.0089      301.14061      20.116608      140256.63      0.92481433    -7927.1692      2123.9918      34194.427    
   3774000   8929.6462     -7572.3162      1815.0588     -6144.343       4449.8111      3087.2647      966.36157      1729.282       10598.527     -1668.8808      296.32354     -149.10302      139998.18      0.9265216     -7872.5887      2126.0405      34212.681    
   3776000   8971.0745     -7573.2806      1837.9358     -6144.4478      4406.1146      3071.4621      945.79031      1669.6357      10757.864     -1786.7899      300.77845      343.64227      140978.54      0.92007861    -7852.8437      2137.8349      34230.874    
   3778000   9055.7091     -7527.7177      1852.6466     -6145.6597      4331.9425      3075.4478      979.74137      1691.2246      10798.083     -1742.3744      301.90293      249.70671      141699.48      0.91539739    -7792.1658      2144.6289      34249.042    
   3780000   9121.8965     -7583.3123      1858.6265     -6143.99        4407.8073      3096.9014      956.00515      1711.5052      10818.353     -1696.4568      302.46965      675.90025      140347.59      0.92421493    -7837.4929      2132.938       34267.033    
   3782000   9165.446      -7544.4692      1862.0729     -6144.0738      4354.9902      3098.1676      990.12391      1727.2428      10821.392     -1655.9456      302.5546      -380.70564      140672.51      0.92208022    -7800.61        2141.4582      34285.207    
   3784000   9015.2496     -7539.1743      1871.4897     -6143.2091      4438.3525      3073.1068      981.63495      1738.7944      10594.255     -1579.0051      296.20409     -110.67596      141170.8       0.91882557    -7784.6469      2149.1312      34303.311    
   3786000   8964.6857     -7562.1727      1864.9982     -6144.2049      4473.783       3007.1655      916.81841      1686.6966      10721.602     -1756.9158      299.76457      429.01253      141082.56      0.91940021    -7805.9473      2151.5421      34321.522    
   3788000   8954.2646     -7506.4284      1857.9256     -6144.296       4373.2184      2910.8933      966.30587      1717.6693      10778.976     -1824.7119      301.36872     -236.77389      141131.34      0.91908248    -7767.0963      2150.3713      34339.716    
   3790000   8926.251      -7520.7073      1846.3938     -6145.613       4348.8064      3022.8977      905.8366       1665.1772      10803.46      -1877.2086      302.05324      185.40636      141074.55      0.9194524     -7791.7238      2148.5619      34357.886    
   3792000   9136.501      -7567.4975      1843.3977     -6143.9186      4417.1011      3098.2392      966.05335      1683.9172      10839.208     -1702.7075      303.05274      444.72783      140468.63      0.92341855    -7836.9936      2144.5532      34375.97     
   3794000   8933.101      -7496.5452      1852.7049     -6144.244       4359.3253      3020.8496      918.11835      1716.764       10706.128     -1773.027       299.33195     -48.154848      141589.84      0.91610624    -7762.1303      2152.5462      34394.083    
   3796000   8868.7005     -7620.9816      1824.2018     -6144.2171      4326.725       3067.856       941.42437      1649.3358      10824.356     -1955.6559      302.63749     -214.05447      139986.87      0.92659646    -7913.9894      2137.2735      34412.241    
   3798000   8941.2781     -7585.9226      1855.6539     -6146.2087      4323.2533      2982.2702      993.96811      1667.9961      10850.268     -1908.9897      303.36195     -295.84671      140807.91      0.92119352    -7845.8426      2147.2191      34430.384    
   3800000   8926.8681     -7570.7589      1836.7076     -6144.6775      4297.3396      3078.5578      973.77343      1723.5175      10732.408     -1805.5404      300.06673      401.49992      140453.94      0.9235151     -7851.2864      2144.7271      34448.7      
   3802000   9084.885      -7582.7126      1857.9158     -6144.6825      4375.5072      3057.6313      989.16243      1687.0889      10844.974     -1760.0895      303.21395      430.80689      140335.9       0.9242919     -7839.5062      2148.0952      34466.969    
   3804000   9060.0553     -7421.5334      1867.6977     -6145.1386      4301.0796      3081.5022      955.32744      1724.526       10696.594     -1636.5391      299.0654       486.56217      142782.86      0.90845172    -7669.9618      2172.1943      34484.996    
   3806000   9054.3865     -7528.1543      1846.4334     -6145.1141      4360.777       3092.7559      952.54275      1696.1528      10778.993     -1724.6066      301.36918      572.89556      140665.83      0.922124      -7795.9318      2155.2348      34503.139    
   3808000   9187.8332     -7458.3673      1859.8396     -6144.7093      4462.911       3104.0915      916.91422      1677.9489      10769.205     -1581.3714      301.0955      -42.66954       142509.79      0.91019245    -7719.6342      2176.9678      34521.352    
   3810000   9030.1711     -7523.7679      1862.0701     -6144.8322      4315.1049      3043.8141      961.87024      1742.7639      10773.148     -1742.9769      301.20576      769.13424      141278.28      0.9181265     -7779.1098      2162.3207      34539.623    
   3812000   9009.9911     -7599.4957      1846.4422     -6145.9366      4430.7162      3039.4914      957.66806      1741.2203      10739.885     -1729.8941      300.27577     -1098.6261      140105.64      0.92581094    -7872.2059      2147.2392      34557.912    
   3814000   9208.6339     -7521.7446      1861.4712     -6145.2656      4391.4982      3022.7015      988.40669      1730.986       10880.581     -1671.9466      304.20946     -251.32783      140970.44      0.92013145    -7782.1958      2160.2647      34576.145    
   3816000   8954.8117     -7590.2611      1870.1812     -6143.9697      4324.9108      3018.7218      964.8444       1710.5517      10799.833     -1845.0209      301.95183      521.83163      139900.41      0.92716907    -7839.3533      2152.0871      34594.489    
   3818000   8904.8717     -7501.5743      1851.9897     -6144.3695      4395.1135      2968.6394      965.54326      1680.5407      10688.989     -1784.1173      298.85276     -125.68266      141335.62      0.91775404    -7763.7534      2166.3691      34612.812    
   3820000   9247.0894     -7567.1013      1840.0292     -6143.9697      4479.6576      3119.024       970.87506      1701.3039      10847.271     -1600.1812      303.27815      382.90484      140734.47      0.92167428    -7840.3047      2156.9982      34630.861    
   3822000   9120.2692     -7594.7432      1842.197      -6145.1959      4428.7135      3071.1453      1013.2257      1683.3402      10821.587     -1701.3175      302.56005      8.867419       140462.31      0.92346008    -7867.472       2154.9573      34649.07     
   3824000   8938.2483     -7545.1595      1853.349      -6144.0135      4389.6515      3079.9489      933.69815      1690.0103      10680.763     -1742.5151      298.62278     -551.82338      140919.64      0.92046315    -7806.172       2161.7302      34667.228    
   3826000   8937.5955     -7588.6177      1817.3506     -6145.2357      4337.7226      2995.7304      956.26501      1664.5343      10899.846     -1962.2505      304.7481      -217.17669      140160.51      0.92544853    -7886.2951      2151.608       34684.933    
   3828000   8817.8572     -7573.826       1854.9069     -6144.5007      4347.8713      3096.0972      922.81653      1664.2372      10650.255     -1832.3978      297.7698       630.93501      140757.74      0.92152186    -7830.2679      2164.1814      34702.671    
   3830000   8865.3408     -7539.4215      1850.2485     -6144.5238      4331.8935      3065.0627      937.06086      1676.5005      10688.52      -1823.1792      298.83965     -88.250377      140945.22      0.92029613    -7805.4511      2163.5039      34720.532    
   3832000   8961.3862     -7567.3081      1823.6773     -6145.2027      4334.971       3114.4051      964.5162       1640.6562      10795.671     -1834.285       301.83548     -469.3531       140358.86      0.92414074    -7866.9769      2159.9099      34738.401    
   3834000   9053.2299     -7519.6651      1858.6897     -6144.1484      4436.2647      3010.2307      955.71908      1699.4933      10756.646     -1703.4161      300.74438     -352.77717      141121.62      0.91914575    -7774.3218      2164.2147      34756.238    
   3836000   8998.2163     -7490.4493      1857.3877     -6145.1093      4311.8668      3068.3722      933.4237       1679.6053      10783.119     -1784.9029      301.48454     -367.36718      141750.95      0.91506501    -7745.7434      2171.7969      34774.114    
   3838000   8885.4668     -7580.4621      1817.2676     -6145.5438      4413.3872      3042.321       981.32886      1641.309       10715.859     -1830.3922      299.60402      226.42659      140053.92      0.92615284    -7882.0314      2155.1805      34792.21     
   3840000   8768.8997     -7663.7892      1800.9212     -6145.4786      4410.5782      3017.9822      982.70443      1670.505       10695.476     -1926.5768      299.03415      526.92108      138658.12      0.93547594    -7979.7094      2140.9857      34810.508    
   3842000   8976.374      -7608.6706      1846.9329     -6145.2255      4442.3324      3056.8004      948.96047      1656.3435      10778.9       -1802.5264      301.36659      969.79787      140249.06      0.92486423    -7880.0322      2152.2745      34828.784    
   3844000   8849.485      -7615.071       1849.9779     -6145.5537      4332.8582      3049.7284      956.30874      1722.6521      10698.584     -1849.0993      299.12104      371.91258      139769.62      0.9280367     -7877.8661      2152.7075      34846.981    
   3846000   9028.0464     -7606.5075      1839.4446     -6145.0063      4308.6363      3094.0031      972.78468      1710.9771      10853.715     -1825.6681      303.45831     -441.97601      140242.93      0.92490466    -7884.0769      2156.4349      34865.185    
   3848000   8757.7262     -7611.342       1846.6521     -6143.7582      4354.6125      2983.0642      932.60594      1679.688       10716.204     -1958.4775      299.61366     -33.390913      139419.72      0.93036576    -7883.6704      2152.2942      34883.296    
   3850000   8962.6128     -7597.8234      1835.2785     -6145.1459      4365.0245      3073.5107      917.66025      1677.5123      10836.596     -1873.9829      302.97969     -297.28795      140181.14      0.92531234    -7883.4392      2156.5366      34901.535    
   3852000   9055.4472     -7564.5283      1842.9433     -6145.4518      4400.2481      3086.3479      991.43705      1661.7444      10782.707     -1727.2593      301.473       -601.79983      140458.71      0.92348373    -7837.7434      2165.5617      34919.59     
   3854000   9041.8152     -7547.0607      1856.1946     -6144.9893      4323.4678      3107.3076      966.32898      1653.9403      10826.626     -1784.8108      302.70095     -263.08891      141004.08      0.91991198    -7808.2797      2169.814       34937.532    
   3856000   8779.7475     -7586.5684      1811.4571     -6144.1412      4279.9554      3030.8822      932.66247      1654.0324      10801.467     -2021.7199      301.99754     -363.69219      140027.67      0.92632648    -7895.4324      2159.5         34955.67     
   3858000   9027.9449     -7534.3835      1872.0147     -6145.1934      4404.2202      2994.8573      949.31659      1684.4346      10802.678     -1774.7334      302.0314       326.35689      141236.2       0.9184001     -7780.7215      2173.8978      34973.832    
   3860000   8961.0512     -7497.449       1878.6682     -6145.0793      4311.4223      3048.2452      944.34539      1696.176       10724.723     -1763.6713      299.85183      571.32265      141128.59      0.91910038    -7733.3102      2169.8594      34992.011    
   3862000   8992.8443     -7568.8709      1867.1195     -6144.8657      4393.6849      3024.5         941.14064      1704.1658      10775.97      -1783.1258      301.28466      89.305671      140443.25      0.92358539    -7819.8891      2160.2757      35010.163    
   3864000   8919.5036     -7503.9728      1850.3583     -6143.7233      4373.5387      3030.8036      954.6086       1741.135       10616.755     -1697.2518      296.83319     -727.82429      141317.55      0.91787141    -7764.5863      2171.6752      35028.338    
   3866000   9067.8698     -7569.2155      1879.138      -6144.2034      4411.7444      3023.4693      946.66517      1706.7017      10813.57      -1745.7003      302.33592      415.84865      140521.89      0.92306854    -7803.8158      2161.8149      35046.508    
   3868000   9139.3937     -7600.4022      1876.0096     -6145.0722      4416.9549      3068.7907      956.41813      1683.4022      10883.293     -1743.8989      304.28528      807.80481      140095.86      0.92587556    -7844.6448      2159.3953      35064.601    
   3870000   9105.8243     -7525.8955      1864.9265     -6144.8884      4368.9137      3097.8455      961.19393      1632.3725      10851.356     -1745.5319      303.39238     -466.77322      141349.15      0.91766619    -7773.8447      2173.5175      35082.784    
   3872000   9040.2708     -7462.4475      1829.7124     -6145.3919      4303.0844      3039.0508      942.9434       1673.6513      10859.668     -1819.3971      303.62476     -383.67715      141967.99      0.91366611    -7748.8787      2175.0334      35100.856    
   3874000   8919.2589     -7572.2027      1872.0831     -6143.2597      4316.178       2984.6264      966.17022      1683.8978      10811.766     -1892.5069      302.28547      1124.8666      140879.84      0.9207232     -7815.589       2166.7616      35119.064    
   3876000   8904.1595     -7526.119       1847.5648     -6145.5701      4288.8809      2977.1903      984.43312      1649.0758      10828.704     -1924.5441      302.75903      640.54605      140601.34      0.92254694    -7792.508       2165.8464      35137.167    
   3878000   8930.9899     -7521.2032      1863.8661     -6144.4769      4306.2604      3003.9865      944.81698      1707.2421      10770.498     -1839.5081      301.13167      46.043029      141285.31      0.91808082    -7775.0668      2173.0608      35155.268    
   3880000   8932.5484     -7576.4117      1847.6166     -6145.057       4357.7574      3023.0947      954.29427      1663.9418      10807.312     -1874.7638      302.16095      735.62491      140422.23      0.9237237     -7847.3472      2170.1264      35173.447    
   3882000   9122.8783     -7514.6046      1843.0223     -6143.3348      4387.1703      3103.397       974.89404      1706.9634      10765.371     -1642.4923      300.98831     -482.76175      141488.47      0.91676262    -7786.841       2180.9671      35191.677    
   3884000   8797.5676     -7532.0171      1859.3561     -6143.7689      4324.8115      2950.8702      945.74123      1662.8718      10729.703     -1932.1353      299.99108     -413.15853      140811.12      0.92117255    -7782.5684      2176.698       35209.864    
   3886000   8895.471      -7558.9867      1864.9249     -6144.5472      4442.4097      3032.9342      896.59709      1676.3509      10685.788     -1790.3171      298.76327     -207.87115      140784.85      0.92134441    -7809.9065      2177.9079      35228.095    
   3888000   9031.4481     -7514.787       1877.9481     -6145.913       4379.662       3038.6469      984.02786      1690.0315      10721.832     -1690.3836      299.77101     -143.6488       141781.59      0.91486725    -7753.2316      2186.9283      35246.3      
   3890000   8999.2389     -7514.0728      1874.8703     -6144.0676      4424.2489      3004.879       966.33131      1653.6479      10733.402     -1734.1631      300.0945      -400.57916      141629.61      0.915849      -7757.6986      2183.8456      35264.551    
   3892000   8631.9861     -7543.1722      1828.6256     -6145.298       4261.707       3036.4591      985.76414      1648.8479      10559.053     -1927.0665      295.21988      78.768967      141175.67      0.91879383    -7831.0315      2177.5229      35282.68     
   3894000   8767.0969     -7557.4341      1883.5551     -6144.6363      4335.9689      2988.7325      988.40047      1684.0754      10588.435     -1821.338       296.04138      745.07168      140675.39      0.92206131    -7789.2507      2175.4558      35300.638    
   3896000   8975.2901     -7476.0161      1841.2803     -6144.1171      4286.5399      3075.243       920.06495      1706.1729      10766.122     -1790.8322      301.00933      606.74693      141249.91      0.91831091    -7744.4011      2180.8548      35318.527    
   3898000   8773.3011     -7513.7147      1829.1737     -6145.186       4339.2152      3007.3468      959.87733      1661.2833      10635.305     -1862.0043      297.35183      878.61783      141209.11      0.91857627    -7800.5721      2181.6305      35336.442    
   3900000   8827.7835     -7499.0595      1853.7495     -6144.5741      4393.9416      3058.8593      903.77823      1651.7679      10609.321     -1781.5371      296.62532     -240.58895      140612.72      0.9224723     -7765.4901      2177.6003      35354.399    
   3902000   8932.8007     -7502.1327      1874.2456     -6143.6421      4312.5758      3070.5827      939.71262      1636.747       10744.712     -1811.9109      300.41071      956.31478      141424.17      0.91717944    -7741.8534      2188.2675      35372.383    
   3904000   9171.5949     -7532.9372      1857.7164     -6144.4532      4398.7977      3080.1774      927.4951       1750.1476      10834.651     -1663.0562      302.92532     -214.31835      141164.43      0.918867      -7787.1697      2187.4353      35390.355    
   3906000   8927.6007     -7569.2328      1848.0886     -6143.5863      4408.7014      3029.9775      970.52602      1690.0377      10693.089     -1765.4879      298.96738      724.08928      140379.06      0.92400774    -7834.2918      2177.1069      35408.392    
   3908000   9025.1548     -7454.6859      1856.9274     -6144.5995      4390.2761      3070.1184      940.92752      1669.2074      10696.983     -1671.8286      299.07628      649.72965      142070.89      0.91300431    -7710.0219      2202.0663      35426.692    
   3910000   9120.1312     -7541.2137      1874.4523     -6142.9253      4445.5397      3051.2016      925.95906      1712.8569      10794.261     -1674.1295      301.79605     -236.76714      141785.35      0.91484305    -7782.9537      2201.7186      35445.004    
   3912000   8757.4017     -7567.1506      1868.0269     -6143.0167      4363.9633      3056.6398      959.11481      1669.4158      10550.408     -1793.0066      294.97819     -873.73719      140500.46      0.92320935    -7816.9212      2195.1318      35463.076    
   3914000   8837.8179     -7584.2321      1866.1818     -6144.9209      4369.4512      3030.1185      952.29664      1670.988       10677.935     -1840.1167      298.5437       371.70136      140239.83      0.92492511    -7834.6809      2190.872       35480.912    
   3916000   8918.0613     -7560.0654      1849.935      -6145.6838      4339.4872      2991.5999      968.60383      1683.4858      10790.699     -1872.6375      301.69646     -447.49121      140666.94      0.9221167     -7826.7782      2197.2085      35498.643    
   3918000   9171.7527     -7459.6728      1852.6261     -6144.41        4421.7476      3095.5824      956.80492      1651.0427      10798.032     -1626.2791      301.90148     -32.556965      141543.01      0.91640937    -7725.227       2208.1627      35516.297    
   3920000   8827.588      -7544.6294      1855.8488     -6145.306       4325.8492      3036.0038      948.6766       1712.8244      10638.321     -1810.7326      297.43613      338.66004      141012.11      0.91985958    -7802.8965      2202.5511      35534.141    
   3922000   8852.2557     -7567.8533      1844.2369     -6144.5825      4339.4298      3016.2807      936.72249      1678.7702      10749.251     -1896.9956      300.53763     -469.27911      140059.65      0.92611499    -7848.565       2197.557       35552        
   3924000   8990.5989     -7474.7033      1861.0361     -6144.6283      4416.1564      2972.4163      917.05294      1714.3303      10728.938     -1738.3396      299.96971     -524.04912      141814.01      0.91465812    -7725.2894      2213.0003      35569.838    
   3926000   8976.7209     -7581.1559      1844.361      -6143.6017      4386.1254      3077.1596      953.99103      1696.3593      10743.482     -1766.7615      300.37634     -280.80174      140567.53      0.92276884    -7852.909       2204.463       35587.592    
   3928000   8952.2124     -7575.2176      1844.3513     -6145.1933      4402.768       3010.576       939.102        1706.9664      10768.859     -1816.6471      301.08586      344.03111      140327.44      0.92434764    -7846.7779      2202.3629      35605.579    
   3930000   9023.2764     -7547.4262      1848.2695     -6144.0568      4429.5424      3124.5297      935.81714      1675.3367      10701.264     -1677.9875      299.19596     -292.99856      140402.85      0.92385115    -7816.0498      2208.0613      35623.657    
   3932000   9125.8842     -7480.0258      1858.1752     -6143.6296      4369.2151      3075.7741      992.25163      1681.047       10773.077     -1647.1924      301.20376      717.66775      141441.09      0.91706969    -7737.527       2215.2154      35641.761    
   3934000   8935.048      -7565.1822      1875.4079     -6144.1838      4358.1614      3100.7488      951.92051      1670.3496      10687.826     -1752.7777      298.82024     -183.57003      140787.96      0.92132407    -7802.3306      2204.9594      35659.701    
   3936000   8955.7735     -7534.0064      1891.9559     -6144.0252      4304.2176      3054.6108      956.82363      1691.7213      10734.476     -1778.7023      300.12452     -551.21819      142229.93      0.91198341    -7758.3442      2223.7339      35677.67     
   3938000   8941.082      -7529.9352      1853.3819     -6144.5156      4380.6215      3004.477       931.30867      1668.1038      10777.64      -1836.5579      301.33135     -266.82056      140554.76      0.92285267    -7796.5103      2206.3781      35696.059    
   3940000   9088.0113     -7601.7622      1857.4077     -6145.0873      4380.1809      3110.4405      911.72303      1675.4168      10899.692     -1811.6806      304.74379     -826.76099      140831.04      0.92104226    -7862.1886      2216.4034      35714.217    
   3942000   8859.995      -7618.395       1868.8746     -6144.0297      4367.5119      3002.1968      952.64539      1671.9835      10759.207     -1899.2125      300.816       -367.1622       139675.88      0.92865955    -7866.7084      2203.4919      35732.478    
   3944000   8970.5626     -7519.5587      1863.2571     -6145.0314      4390.8969      3061.39        951.40881      1671.4932      10696.707     -1726.1441      299.06854     -460.92259      141401.4       0.91732708    -7773.2285      2224.3418      35750.453    
   3946000   9010.4865     -7589.7804      1872.8952     -6145.6325      4421.442       3112.0738      981.34336      1621.0631      10737.082     -1726.5954      300.19739     -128.44288      140045.09      0.92621127    -7834.8177      2209.36        35768.624    
   3948000   8891.0209     -7538.3913      1872.965      -6143.7857      4298.5421      3108.4063      967.94374      1694.4563      10630.885     -1739.8637      297.22822      197.08933      140149.95      0.92551827    -7783.093       2212.5705      35786.64     
   3950000   8871.3936     -7529.9342      1857.9518     -6144.8107      4358.6527      3003.1699      905.40717      1676.2659      10744.691     -1873.2974      300.41013     -434.93822      141176.44      0.91878881    -7787.6563      2222.0955      35804.66     
   3952000   9103.0346     -7540.338       1867.5432     -6145.4094      4427.7163      3166.4068      925.59805      1699.0835      10702.434     -1599.3995      299.22867      769.92578      140805.61      0.9212086     -7788.4092      2221.9833      35822.562    
   3954000   8936.1478     -7485.9784      1861.3537     -6144.0867      4310.4343      3054.1535      994.6067       1698.1172      10647.548     -1711.3998      297.69411     -697.16403      141475.73      0.91684514    -7737.6008      2226.0239      35840.451    
   3956000   9100.0237     -7524.7678      1842.448      -6144.8355      4476.0247      3050.2122      968.4003       1615.6343      10816.908     -1716.8838      302.42923      218.87466      141201.36      0.91862669    -7795.9612      2220.9592      35858.471    
   3958000   8918.7424     -7508.5107      1869.2643     -6143.8488      4278.0146      2969.4344      925.98542      1724.2496      10804.154     -1885.4112      302.07264      483.54923      140797.39      0.92126235    -7750.9924      2212.4862      35876.564    
   3960000   8977.1693     -7594.6076      1861.9177     -6146.7987      4471.3364      2991.1602      930.7357       1686.0367      10777.389     -1800.2196      301.32433      36.754816      140355.41      0.92416344    -7851.8978      2210.262       35894.784    
   3962000   9006.923      -7561.4255      1873.1603     -6146.5004      4347.5883      3081.1309      969.16066      1725.5394      10718.269     -1711.3464      299.67141     -123.71402      140769.37      0.92144575    -7803.5371      2222.4628      35912.993    
   3964000   9233.7539     -7567.6802      1870.7982     -6144.5744      4364.6289      3082.036       983.16085      1684.2841      10961.1       -1727.3464      306.46071     -94.526856      139624.9       0.92899863    -7808.6008      2205.5465      35931.318    
   3966000   9124.0577     -7552.1674      1873.7112     -6144.5701      4392.3777      3058.4647      955.8283       1715.5194      10824.894     -1700.8362      302.65252     -573.86917      140637.76      0.92230806    -7791.0671      2220.5456      35949.438    
   3968000   8848.8301     -7484.2419      1818.0208     -6144.6208      4399.3793      2986.7379      945.79876      1681.0235      10646.732     -1797.9024      297.67132     -675.23474      141471.12      0.916875      -7781.3802      2229.711       35967.619    
   3970000   8760.4425     -7590.6798      1852.8003     -6145.7881      4306.8055      2966.0142      969.25979      1650.3486      10751.682     -1991.2395      300.60559      724.60295      140164.07      0.92542501    -7858.4113      2211.1753      35985.726    
   3972000   8850.3787     -7560.973       1830.5515     -6143.7119      4415.9862      2992.9923      994.23787      1654.025       10667.271     -1816.892       298.24554      550.70735      140481.69      0.92333268    -7838.1644      2219.5825      36003.83     
   3974000   9161.1303     -7476.6165      1849.7823     -6145.8346      4446.1494      3018.4724      979.27696      1692.3549      10797.545     -1636.4151      301.88788      331.47367      141282.34      0.91810017    -7743.644       2230.2023      36022.054    
   3976000   9052.9298     -7563.5676      1834.2344     -6143.842       4394.0411      3102.6354      977.10587      1675.2779      10777.045     -1724.1149      301.31471     -407.65155      140024.51      0.92634735    -7845.7502      2222.612       36040.257    
   3978000   9190.6832     -7495.2096      1883.8326     -6144.6922      4486.9428      3086.0205      933.6856       1687.2257      10752.878     -1562.1947      300.63903     -201.64123      141144.1       0.91899934    -7725.3739      2239.7186      36058.647    
   3980000   9157.2926     -7543.8575      1825.1279     -6143.5866      4375.9447      3015.8378      972.64529      1768.7444      10886.436     -1729.1439      304.37318      200.99938      140060.17      0.92611155    -7829.5396      2228.2495      36076.87     
   3982000   8942.8302     -7620.9504      1871.6429     -6143.6379      4419.5586      2969.1028      991.65433      1662.376       10793.084     -1850.2537      301.76314     -552.94872      140774.54      0.92141191    -7862.2297      2237.8428      36095.291    
   3984000   8676.4635     -7576.8783      1846.8877     -6144.3681      4298.516       2970.3747      980.74024      1636.038       10665.153     -1988.6897      298.18634     -446.05568      140681.02      0.92202443    -7848.7107      2238.3922      36113.295    
   3986000   9000.8331     -7558.8922      1852.2579     -6146.274       4402.0305      3060.1034      994.03365      1707.9321      10689.642     -1688.8087      298.87101      243.53837      140758.31      0.92151813    -7824.4957      2238.2754      36131.25     
   3988000   8917.2108     -7576.1673      1848.9312     -6145.9956      4360.4952      3045.1059      956.89534      1692.8117      10735.134     -1817.9236      300.14294      927.5484       140347.57      0.92421504    -7844.4781      2235.6166      36149.05     
   3990000   9121.5783     -7562.5107      1855.4106     -6145.27        4467.1491      3069.7554      955.11404      1700.235       10781.695     -1660.1166      301.44472     -769.20938      140925.73      0.92042337    -7824.7457      2238.1086      36166.904    
   3992000   9039.5936     -7564.1446      1852.2732     -6144.2116      4373.1778      3069.133       951.03356      1678.6979      10823.634     -1784.0407      302.6173      -207.52178      140859.9       0.92085357    -7830.3701      2239.7328      36184.845    
   3994000   9095.3366     -7517.2445      1888.9951     -6142.748       4415.2646      3017.02        942.84679      1681.1676      10810.035     -1714.6985      302.23708      95.850182      141470.03      0.91688212    -7743.856       2250.4867      36202.958    
   3996000   9039.5881     -7509.3949      1900.3066     -6144.4298      4354.2029      3055.24        880.16446      1670.6632      10832.836     -1793.2476      302.87456     -199.40731      141493.43      0.91673048    -7727.8143      2244.768       36221.148    
   3998000   9046.718      -7515.4408      1882.8686     -6144.034       4286.9397      3099.7         919.60819      1671.0101      10846.066     -1799.3483      303.24448     -298.71213      141388.37      0.91741162    -7753.9284      2241.6809      36239.152    
   4000000   8889.3593     -7570.6499      1830.6331     -6144.6496      4325.0885      3042.8488      947.87172      1684.9534      10773.263     -1883.9041      301.20898      470.87187      140268.07      0.92473889    -7853.4881      2228.9047      36257.066    
   4002000   8802.7271     -7578.4623      1877.0459     -6144.0382      4353.921       3027.3346      949.19706      1684.4661      10633.263     -1830.5358      297.29472     -18.614167      141022.04      0.9197948     -7817.8503      2236.9407      36274.877    
   4004000   9160.6444     -7524.0124      1907.7272     -6142.5241      4402.3831      3103.0523      964.18335      1734.5388      10715.296     -1554.6518      299.58828     -70.349348      141163.42      0.9188736     -7731.063       2239.2087      36292.853    
   4006000   8984.3857     -7478.8412      1882.0642     -6144.9468      4322.3252      3074.4479      994.80741      1726.785       10607.744     -1623.3582      296.58124     -22.25202       141976.26      0.91361284    -7712.1298      2255.8708      36310.757    
   4008000   9104.8205     -7553.7505      1853.9932     -6143.3095      4384.9098      3083.4853      959.58155      1772.2013      10747.709     -1642.8889      300.49452     -39.525272      141236.45      0.91839843    -7813.4899      2248.5008      36328.697    
   4010000   8867.5295     -7535.4424      1855.4248     -6145.2494      4328.9598      3081.9766      901.17575      1700.0812      10680.603     -1813.0736      298.6183       1142.1409      139989.76      0.92657729    -7803.2522      2236.0605      36346.796    
   4012000   9053.0074     -7506.6168      1868.975      -6144.99        4403.565       3028.0129      942.14368      1627.5821      10834.335     -1781.3281      302.91649     -276.90664      140826.69      0.92107067    -7758.4971      2237.4343      36365.021    
   4014000   9027.3327     -7472.3894      1852.7701     -6144.3029      4356.0687      3054.5829      941.85794      1658.2261      10780.519     -1753.1865      301.41185      376.0203       141993.83      0.91349984    -7738.7465      2249.6536      36383.041    
   4016000   8891.6959     -7531.1752      1855.9453     -6145.5517      4386.3681      3020.3343      941.72531      1670.0514      10693.998     -1802.3024      298.99282     -1206.9735      141028.78      0.91975084    -7794.4012      2240.1268      36400.903    
   4018000   8812.2306     -7513.551       1861.8623     -6145.6466      4366.7542      3007.5147      969.26926      1688.5949      10577.433     -1765.2023      295.73377      469.41104      141492.65      0.91673554    -7768.7357      2246.8662      36418.92     
   4020000   8946.2213     -7560.9292      1890.9116     -6143.7604      4419.4359      3012.0372      980.37926      1670.3706      10677.776     -1731.5551      298.53927      138.97975      140451.86      0.92352879    -7786.2469      2237.6461      36436.965    
   4022000   8746.8988     -7568.6214      1832.4857     -6143.7313      4373.8731      3020.9836      939.80614      1671.7272      10620.376     -1873.477       296.93441      472.44028      139724.17      0.9283386     -7851.6829      2231.106       36455.091    
   4024000   8784.6138     -7573.3349      1886.9261     -6144.337       4319.895       2985.2823      944.61361      1729.0893      10636.479     -1851.8656      297.38465     -442.04033      140601.74      0.92254433    -7808.1234      2244.5017      36473.321    
   4026000   9133.4985     -7474.5155      1889.5405     -6142.9197      4396.0029      3053.9177      974.74809      1688.4488      10748.276     -1614.7772      300.51035     -414.93828      141756.99      0.91502602    -7699.1897      2257.2096      36491.568    
   4028000   9121.5612     -7512.2927      1855.9404     -6144.512       4325.0379      3113.1193      926.40578      1679.8833      10877.979     -1756.418       304.13673      459.37858      141169.24      0.91883571    -7775.8635      2255.0426      36509.45     
   4030000   9076.7241     -7491.3941      1850.1205     -6144.329       4396.8291      3048.7793      933.31841      1672.575       10810.825     -1734.1007      302.25916     -279.79774      141176.34      0.91878949    -7756.8831      2251.9806      36527.47     
   4032000   9141.9091     -7560.3589      1868.6077     -6145.2054      4436.8898      3101.1962      938.55601      1712.3083      10789.915     -1648.0063      301.67456      143.50395      140909.8       0.92052745    -7808.2301      2249.4646      36545.395    
   4034000   9016.2237     -7502.8721      1880.2575     -6145.0769      4359.6763      2932.3967      905.35535      1723.6706      10862.816     -1846.5925      303.71279     -1408.4265      141451.63      0.91700134    -7738.9209      2252.8236      36563.339    
   4036000   8977.6207     -7618.3652      1860.3247     -6146.1359      4370.8274      3082.7514      962.06922      1684.4062      10781.743     -1804.1222      301.44606      236.94352      140117.9       0.92572996    -7876.1942      2239.6438      36581.257    
   4038000   9054.7234     -7556.3189      1873.3823     -6145.0861      4443.4822      3065.8585      971.63606      1630.4879      10771.281     -1716.558       301.15357      392.05822      140923.58      0.92043743    -7801.6776      2247.2522      36599.241    
   4040000   9017.6009     -7521.0027      1839.7627     -6144.3935      4342.3795      3031.4156      1019.7218      1705.2013      10744.516     -1726.9152      300.40524      411.79101      141159.01      0.91890231    -7791.0017      2254.7696      36617.4      
   4042000   9177.2596     -7460.1663      1852.1084     -6143.0773      4352.5909      3114.9841      939.25845      1717.5053      10804.056     -1626.7964      302.06991      591.47891      142297.24      0.91155199    -7721.225       2264.0929      36635.411    
   4044000   9052.0312     -7518.3591      1868.0409     -6142.9537      4375.7713      3013.0265      942.43785      1689.3035      10824.764     -1772.7326      302.64888      456.74638      140829.15      0.92105459    -7761.8874      2249.0759      36653.597    
   4046000   8932.6184     -7486.143       1874.0279     -6144.7066      4421.1356      2957.4497      963.21498      1652.6963      10694.943     -1762.3251      299.01924     -538.86839      142062.93      0.91305546    -7730.5711      2260.2881      36671.615    
   4048000   9116.715      -7502.5299      1902.355      -6144.8607      4403.8971      3078.0449      905.54813      1704.2196      10770.041     -1653.3257      301.11888      321.41027      141690.25      0.91545707    -7719.4582      2261.2534      36689.504    
   4050000   9109.1083     -7460.8611      1888.2611     -6143.2165      4352.9282      3014.8665      960.87227      1734.4556      10761.802     -1652.6939      300.88854      43.850813      142005.84      0.91342257    -7687.0761      2268.9783      36707.486    
   4052000   9021.1631     -7542.4388      1876.1374     -6144.3532      4375.3563      2985.4705      999.86945      1690.5928      10780.529     -1759.3655      301.41211      337.60717      140773.21      0.92142058    -7778.3384      2261.5873      36725.777    
   4054000   8931.8811     -7515.5765      1873.0881     -6143.457       4391.3192      3064.8805      925.12059      1630.5557      10705.951     -1774.0695      299.32699      354.65429      141041.85      0.91966558    -7755.4152      2267.7948      36743.878    
   4056000   8938.0585     -7549.6943      1877.5868     -6143.8534      4349.5489      3024.8285      951.96163      1687.915       10739.765     -1801.7068      300.27241     -959.56722      140800.98      0.92123891    -7789.9879      2266.1103      36762.024    
   4058000   8994.3008     -7554.4971      1839.9163     -6144.0091      4410.3916      3069.4207      977.65677      1645.2667      10750.155     -1755.8541      300.5629      -467.13418      140770.93      0.92143553    -7827.7157      2266.2971      36780.157    
   4060000   9007.984      -7539.7569      1851.1209     -6145.3923      4414.5504      2989.2894      937.61768      1708.8462      10791.709     -1783.7246      301.72469      202.92856      140675.04      0.92206365    -7800.2303      2263.9149      36798.372    
   4062000   8877.6427     -7550.4861      1855.6743     -6143.4478      4436.8333      3015.187       975.79229      1658.2439      10629.846     -1752.2033      297.19919      221.15259      141334.07      0.91776412    -7805.1538      2268.1739      36816.654    
   4064000   9004.9325     -7601.6394      1872.6577     -6143.5223      4414.8128      3006.9425      989.00404      1692.6829      10773.994     -1769.0617      301.22942      707.47226      140150.76      0.92551293    -7843.9371      2259.5838      36834.872    
   4066000   9049.3722     -7538.3317      1878.2009     -6144.0458      4435.0327      3075.3429      943.02297      1690.9041      10709.246     -1659.8738      299.41913     -241.6538       141028.17      0.91975482    -7775.0827      2266.5764      36853.021    
   4068000   8908.1148     -7523.7947      1857.6082     -6144.3202      4236.6262      3106.6647      940.45672      1696.6977      10738.176     -1830.0614      300.22798      75.456135      141580.66      0.91616564    -7781.7001      2277.88        36871.067    
   4070000   9004.4156     -7553.6926      1832.9608     -6146.1803      4284.9893      3106.4929      985.79337      1728.1231      10765.929     -1761.5134      301.00392      579.87498      140711.3       0.921826      -7833.1584      2266.5475      36889.18     
   4072000   9070.4613     -7523.2151      1883.6805     -6144.8711      4464.9651      3064.6649      940.42002      1678.5342      10706.283     -1635.8216      299.33628     -1164.6596      140945.9       0.92029164    -7757.8364      2265.823       36907.408    
   4074000   8997.2808     -7600.0252      1861.3787     -6144.3154      4404.4431      3038.7209      942.94868      1705.0954      10789.035     -1791.7539      301.64993      186.5594       140415.69      0.92376667    -7854.7616      2266.0947      36925.643    
   4076000   8933.3571     -7520.8065      1860.1278     -6145.6786      4401.8984      3019.4152      983.31505      1640.4407      10694.645     -1761.288       299.0109       159.92316      140606.18      0.92251521    -7780.3035      2271.1637      36943.91     
   4078000   8931.7503     -7518.006       1828.8975     -6144.8201      4371.8745      3031.2165      1000.8195      1707.9948      10653.774     -1722.0235      297.86818      784.52508      139668.13      0.92871105    -7803.7051      2265.3159      36962.146    
   4080000   8684.6712     -7508.7105      1832.5361     -6143.5621      4275.5731      2997.7422      941.02165      1654.7404      10635.33      -1950.6591      297.35252      702.90371      141184.23      0.91873815    -7786.313       2282.9878      36980.248    
   4082000   9167.18       -7525.0484      1862.8164     -6144.2813      4429.6067      3058.2861      963.51236      1673.5688      10848.719     -1681.5393      303.31865      188.17096      141080.19      0.91941564    -7782.1143      2283.2273      36998.462    
   4084000   8986.9769     -7539.5573      1863.1689     -6144.4163      4418.6851      3020.9191      977.62074      1703.4328      10687.124     -1700.1469      298.80061     -540.83967      140688.65      0.92197445    -7797.7203      2276.726       37016.616    
   4086000   9011.4891     -7524.6861      1829.6189     -6143.7588      4406.5128      3011.3175      936.45735      1728.4978      10767.53      -1756.0406      301.04868     -313.23237      140877.11      0.92074106    -7813.149       2285.0044      37034.814    
   4088000   8913.4191     -7577.47        1856.0269     -6145.7228      4379.7262      3028.8429      943.93537      1693.9758      10734.105     -1820.6856      300.11415     -155.12844      140657.24      0.92218033    -7837.4729      2282.9784      37053.037    
   4090000   9173.5603     -7550.8078      1862.4964     -6145.402       4420.987       3047.9813      966.43113      1719.6055      10852.269     -1678.7086      303.4179      -707.04187      141150.3       0.91895901    -7806.3862      2285.4523      37071.431    
   4092000   8810.224      -7582.2364      1835.0565     -6145.3059      4358.5814      3047.6418      976.0784       1635.4282      10684.98      -1874.756       298.74068     -924.02454      140493.01      0.92325833    -7861.476       2281.3412      37089.744    
   4094000   8806.0233     -7599.0404      1837.7393     -6143.5034      4313.4608      3027.7208      947.03032      1650.6864      10771.929     -1965.9062      301.17169      928.95714      140275.88      0.92468741    -7876.1813      2278.777       37107.916    
   4096000   8749.416      -7653.1936      1829.2642     -6145.6339      4353.7622      2955.632       924.86449      1673.7466      10810.974     -2061.558       302.26333      249.6025       139666.3       0.92872323    -7941.571       2276.3345      37126.118    
   4098000   9008.3605     -7545.3759      1839.2032     -6144.1974      4355.3958      3035.749       931.6613       1713.1488      10822.776     -1814.4151      302.59329     -579.82092      140843.99      0.92095753    -7822.2527      2284.5431      37144.4      
   4100000   8726.2643     -7617.919       1835.2817     -6144.3951      4306.6923      3071.6014      937.54394      1696.8844      10640.575     -1914.3104      297.49915     -240.51424      139442.2       0.93021579    -7899.7831      2276.1632      37162.441    
   4102000   9090.7184     -7593.695       1862.9532     -6143.9141      4397.0688      2999.4448      949.65712      1736.6385      10882.565     -1791.8466      304.26494     -65.910812      140316.34      0.92442079    -7845.5399      2286.6822      37180.61     
   4104000   8927.5699     -7531.8672      1855.9299     -6145.5649      4255.946       3032.0139      937.46694      1708.4714      10815.174     -1887.604       302.38076     -199.03711      141121.79      0.91914463    -7796.1596      2293.0461      37198.654    
   4106000   8901.6028     -7536.1511      1847.227      -6143.6495      4372.6643      2985.2894      942.56273      1690.546       10743.114     -1841.5112      300.36604     -192.74405      140420.81      0.92373301    -7801.017       2287.5895      37216.687    
   4108000   9023.7912     -7554.8019      1844.0949     -6144.6096      4362.3572      3050.9475      941.51617      1749.8565      10774.43      -1750.6393      301.24162      71.419775      140819.15      0.92112001    -7822.3308      2295.173       37234.735    
   4110000   9000.0099     -7573.1553      1822.2888     -6146.0855      4508.5776      3094.1697      936.67802      1651.8349      10705.702     -1705.6918      299.32003     -521.69309      140639.47      0.92229683    -7868.6057      2293.6147      37252.709    
   4112000   8867.8779     -7568.3033      1874.2374     -6145.4537      4280.4595      2979.4722      971.46635      1714.3325      10761.667     -1893.789       300.88476     -544.96183      140565.87      0.92277974    -7813.6932      2292.945       37270.854    
   4114000   9165.4082     -7542.443       1847.4762     -6143.6569      4380.212       3104.7612      922.77867      1677.676       10918.604     -1753.1959      305.27256     -537.28106      141641.17      0.91577426    -7811.1247      2304.8372      37288.841    
   4116000   9059.2353     -7588.132       1858.2555     -6145.0823      4356.7254      3069.2274      919.24503      1674.7788      10914.217     -1854.9822      305.14991      775.49926      139837.81      0.92758414    -7850.4865      2288.3936      37306.765    
   4118000   9123.0012     -7461.6077      1863.1243     -6142.8394      4399.7149      3088.4082      930.5383       1698.3516      10747.311     -1624.3097      300.48338      304.3694       142334.71      0.91131207    -7713.6302      2319.2502      37324.63     
   4120000   8883.3159     -7573.7075      1867.334      -6142.5747      4376.7408      3001.9487      961.81373      1674.4369      10717.324     -1834.0081      299.64498      1046.7286      140441.9       0.92359427    -7820.2493      2306.5874      37342.537    
   4122000   9096.9559     -7596.0026      1858.2542     -6145.0877      4356.163       3091.0688      952.52077      1722.4124      10857.627     -1760.671       303.5677       412.42952      140218.88      0.9250633     -7853.4334      2301.294       37360.661    
   4124000   8996.0318     -7526.5241      1876.4409     -6142.7042      4331.956       2998.2983      971.70562      1676.1524      10810.707     -1814.675       302.25586     -275.50369      140804.57      0.92121536    -7764.1131      2305.7266      37378.933    
   4126000   9133.8424     -7477.0468      1873.0417     -6142.9589      4313.396       3127.5479      987.19141      1714.6745      10737.997     -1604.1542      300.22296     -253.77771      141746.39      0.91509448    -7721.5797      2326.9304      37397.238    
   4128000   9099.3297     -7560.4317      1843.4255     -6143.4311      4451.5901      3122.2113      932.6721       1700.5454      10752.748     -1653.4184      300.6354      -178.19117      140823.2       0.92109353    -7829.7723      2317.1295      37415.393    
   4130000   9017.6573     -7585.7012      1863.406      -6143.939       4299.6659      3064.9253      939.85581      1645.017       10934.427     -1916.77        305.71496     -82.371687      140389.63      0.92393817    -7840.9399      2315.55        37433.517    
   4132000   8857.7997     -7506.6473      1854.1734     -6143.4927      4294.2785      2967.4784      947.80044      1667.1147      10777.094     -1919.2945      301.31609     -153.94508      140320.97      0.92439023    -7765.1785      2311.2183      37451.507    
   4134000   9173.2111     -7522.0822      1854.8738     -6142.7655      4369.4543      3143.1419      969.72629      1716.3132      10784.549     -1611.3383      301.52453      118.33819      141354.17      0.9176336     -7780.2073      2321.2786      37469.371    
   4136000   9205.62       -7499.6562      1857.3384     -6143.1302      4373.2309      3033.1791      985.48627      1683.245       10915.927     -1710.3068      305.1977       357.304        141337.84      0.9177396     -7754.3624      2320.4837      37487.199    
   4138000   9210.4031     -7588.0409      1893.2762     -6142.4648      4359.2355      3107.6275      952.24234      1757.5365      10870.991     -1660.5876      303.94134     -91.924956      140352.4       0.92418326    -7812.1337      2315.8206      37505.287    
   4140000   8897.281      -7453.5711      1867.361      -6145.2798      4283.6991      3014.9978      950.61557      1640.5009      10738.958     -1841.6766      300.24983      1049.8064      141506.91      0.91664312    -7703.6437      2328.3231      37523.119    
   4142000   9014.3329     -7496.8338      1828.6143     -6144.3631      4343.4865      3140.7748      957.55894      1652.1337      10732.961     -1718.6285      300.08218      272.27986      141648.86      0.91572454    -7784.5096      2329.4156      37540.969    
   4144000   9043.2437     -7517.9192      1868.7407     -6145.2637      4417.1968      3013.3026      916.94043      1736.4612      10753.785     -1710.5412      300.66439      22.441205      141443.4       0.9170547     -7766.2574      2329.1312      37558.732    
   4146000   9097.1183     -7472.9886      1850.9012     -6143.7319      4386.6157      3091.4751      958.58646      1688.357       10737.903     -1640.7851      300.22036     -331.81144      142411.48      0.91082082    -7738.9116      2339.9459      37576.542    
   4148000   9010.5522     -7569.3003      1844.4039     -6145.3362      4394.5727      3101.1765      928.11984      1677.2428      10779.673     -1769.1209      301.38819     -157.18608      140750.32      0.92157049    -7847.6258      2323.1469      37594.346    
   4150000   9015.6224     -7477.6165      1877.8525     -6144.6092      4351.1403      3022.0034      966.82844      1648.0961      10771.927     -1756.305       301.17163      228.63085      142007.02      0.91341494    -7715.5314      2334.0136      37612.238    
   4152000   9163.1343     -7413.502       1842.1998     -6145.438       4390.4281      3055.1238      921.84181      1701.3798      10811.101     -1647.9666      302.26688     -99.465848      142105.31      0.91278316    -7687.1251      2337.9051      37630.113    
   4154000   9013.2342     -7567.5599      1865.9566     -6143.1155      4301.7741      3095.0577      990.95931      1687.7544      10782.408     -1769.1734      301.46465      118.5529       140365.97      0.92409389    -7817.5866      2318.7868      37648.173    
   4156000   8831.0387     -7584.3647      1835.3151     -6144.5303      4329.7821      3014.5561      925.82787      1693.124       10761.328     -1930.2898      300.8753       136.17723      140488         0.9232912     -7865.8649      2327.1477      37666.319    
   4158000   8842.2238     -7575.0453      1824.3644     -6145.7112      4334.6714      3092.1367      967.85023      1643.4364      10700.521     -1858.2973      299.17519      450.30597      140962.55      0.92018294    -7869.8863      2332.3491      37684.517    
   4160000   9035.7498     -7614.8615      1847.474      -6145.9755      4403.8369      3063.4344      928.27554      1677.272       10876.294     -1840.5441      304.08961      170.73784      139935.71      0.92693523    -7888.2368      2324.6558      37702.669    
   4162000   8692.5152     -7570.5497      1859.2897     -6144.1349      4287.5756      3024.9733      940.52303      1674.2774      10620.561     -1928.0456      296.93958     -433.8387       140362.69      0.92411553    -7830.4388      2330.4331      37720.826    
   4164000   8875.7484     -7595.1133      1841.7244     -6144.3033      4378.8243      3050.3427      965.36163      1651.4859      10727.426     -1851.6776      299.92742     -173.36035      139960.4       0.92677167    -7868.1159      2327.8454      37739.161    
   4166000   8959.2923     -7544.9017      1836.7342     -6144.7415      4395.8379      3074.5627      927.73696      1721.6777      10692.386     -1733.0936      298.94774     -244.06188      141133.57      0.91906793    -7825.428       2347.1123      37757.342    
   4168000   8959.2315     -7562.9265      1865.9408     -6145.9062      4423.9852      3016.041       922.16079      1705.4804      10734.456     -1775.2245      300.12397     -387.64477      141396.28      0.91736034    -7815.7956      2346.0809      37775.507    
   4170000   9125.9447     -7498.0726      1854.8869     -6144.5382      4478.7983      3111.4765      925.8946       1720.5314      10676.968     -1551.0231      298.51666     -569.71864      141545.15      0.91639551    -7764.8463      2350.6724      37793.73     
   4172000   9223.6454     -7490.7569      1895.1741     -6144.6218      4433.7032      3041.8295      952.72046      1694.3094      10841.287     -1617.6419      303.11086     -525.53106      141983.74      0.91356472    -7710.7734      2355.2162      37812.068    
   4174000   8931.9236     -7523.1296      1859.7025     -6142.6852      4426.3159      3047.9618      927.15815      1680.2886      10656.312     -1724.3879      297.93914     -353.03065      141250.55      0.91830675    -7779.2392      2345.953       37830.331    
   4176000   8864.0528     -7522.6831      1847.8852     -6143.2047      4415.3085      3047.7735      951.40462      1661.8404      10605.728     -1741.6756      296.52489     -243.1825       140781.48      0.92136649    -7789.2302      2344.1943      37848.485    
   4178000   8816.4728     -7543.6984      1859.8596     -6144.376       4376.6835      3026.9418      931.95871      1594.9712      10714.132     -1897.6596      299.55575      249.40232      140504.74      0.92318125    -7798.1247      2342.393       37866.312    
   4180000   9003.5274     -7524.2223      1874.506      -6144.2766      4352.2061      2982.1812      963.87922      1681.241       10818.013     -1814.4855      302.46013      383.95506      141314.98      0.91788812    -7764.0417      2350.9808      37884.286    
   4182000   8924.6781     -7567.0544      1870.4297     -6144.8701      4265.2079      3000.4266      948.73065      1699.9745      10851.833     -1927.1552      303.40572      1073.0945      140417.32      0.92375595    -7814.3607      2345.2713      37902.222    
   4184000   8884.4996     -7596.7447      1855.2957     -6144.2296      4336.8357      3056.4874      957.54649      1682.842       10736.467     -1851.967       300.18019     -390.55052      140934.5       0.92036612    -7856.6209      2353.8681      37920.394    
   4186000   8769.8179     -7594.0317      1842.2779     -6144.2937      4337.8605      3022.1031      968.47371      1668.0216      10669.406     -1899.5885      298.30526     -934.16644      140452.94      0.92352171    -7871.9908      2346.1138      37938.204    
   4188000   8777.6787     -7578.4257      1850.5836     -6145.3384      4359.4621      3050.1487      912.35909      1635.1363      10693.753     -1916.0743      298.98596     -204.0355       139644.77      0.92886645    -7844.9771      2339.2782      37956.225    
   4190000   9080.5567     -7540.1866      1878.7376     -6144.187       4342.637       3089.461       933.8163       1717.0192      10803.259     -1722.7025      302.04764      202.3468       140555.19      0.92284989    -7778.5567      2347.2358      37974.237    
   4192000   9118.3572     -7547.4866      1868.3656     -6144.2867      4427.4774      3032.0304      945.14956      1698.6231      10838.484     -1720.1271      303.03249     -309.71843      140211.94      0.92510906    -7800.0588      2349.5331      37992.237    
   4194000   9052.8636     -7510.6128      1858.9877     -6143.9386      4393.91        3123.1821      986.48623      1726.2829      10618.566     -1565.7024      296.88381     -131.0797       140609.63      0.92249255    -7765.6071      2355.213       38010.264    
   4196000   9214.8287     -7465.0877      1863.6227     -6144.7679      4355.6229      3056.092       994.60102      1684.7089      10870.037     -1655.2081      303.91467     -586.13912      142012.95      0.9133768     -7719.6088      2374.5562      38028.396    
   4198000   8824.7918     -7526.6121      1833.3672     -6143.5781      4264.1629      3015.8673      954.11943      1715.3382      10712.127     -1887.3352      299.49968     -48.885244      140997.9       0.91995226    -7808.1938      2360.2106      38046.343    
   4200000   9022.236      -7601.8297      1870.3802     -6143.6791      4431.4862      3023.3692      965.05356      1664.5273      10812.928     -1790.6924      302.31798      565.35616      140687.8       0.92197998    -7842.5494      2361.3481      38064.591    
   4202000   8955.8511     -7509.9561      1839.8756     -6143.839       4319.7377      3008.584       982.60169      1664.2263      10794.621     -1838.7698      301.80612     -61.657745      141344.75      0.91769476    -7785.8712      2372.3874      38082.683    
   4204000   8958.2153     -7587.5852      1843.9272     -6143.9124      4335.9142      3046.8028      994.4382       1675.9708      10792.66      -1834.4444      301.75128      265.8779       140639.35      0.92229763    -7860.2233      2366.2156      38100.809    
   4206000   8913.8374     -7511.4795      1855.5215     -6144.9092      4313.2946      3111.6622      929.38011      1681.4287      10678.939     -1765.1015      298.57177     -52.905979      141230.9       0.91843457    -7773.3991      2372.5829      38119.133    
   4208000   8872.1418     -7529.5801      1840.3631     -6145.1299      4331.8909      3066.3055      941.52007      1709.4063      10657.366     -1785.2241      297.96862     -378.86525      140482.28      0.92332884    -7809.1043      2361.4624      38137.354    
   4210000   9061.5527     -7557.8006      1868.5698     -6146.6677      4447.9679      3040.3881      966.81077      1683.5309      10758.754     -1697.2009      300.80331      137.89705      141028.74      0.91975108    -7805.4252      2367.5712      38155.73     
   4212000   8903.6924     -7560.8355      1860.8485     -6143.7899      4354.4201      3065.8798      984.90296      1656.4558      10685.811     -1782.1183      298.7639      -170.64656      140816.88      0.92113486    -7814.8253      2366.0489      38174.018    
   4214000   8720.4616     -7626.0516      1836.2713     -6144.8425      4346.2145      3046.1954      950.3549       1684.2273      10628.092     -1907.6306      297.15016     -792.11746      140077.69      0.92599571    -7901.8749      2359.921       38192.374    
   4216000   9021.5138     -7498.5357      1892.9211     -6145.3135      4290.6141      2991.2688      948.48708      1674.0367      10868.035     -1846.5215      303.85871      243.52958      142028.37      0.91327765    -7727.9813      2383.0435      38210.583    
   4218000   8908.3304     -7550.4983      1861.2544     -6145.5104      4385.1277      3067.9359      937.83023      1681.4661      10670.725     -1762.3944      298.34211      224.98937      140650.21      0.92222641    -7804.495       2369.9457      38228.799    
   4220000   8926.6829     -7580.6444      1865.2904     -6144.5129      4317.5791      3035.3458      928.80921      1704.8418      10799.974     -1873.2912      301.95579      60.889271      140285.65      0.92462298    -7834.7991      2368.8896      38247.032    
   4222000   9018.2288     -7518.7072      1866.6992     -6143.7637      4301.8816      3013.4201      943.62104      1710.4045      10844.673     -1826.4444      303.20553      443.28318      141209.26      0.91857529    -7767.5914      2376.4876      38265.35     
   4224000   8913.9277     -7526.5751      1810.7898     -6145.6567      4392.6488      3063.3334      968.15561      1698.7742      10652.458     -1738.5299      297.83138     -391.11986      141184.29      0.91873776    -7829.3361      2378.2887      38283.673    
   4226000   9070.9148     -7546.1804      1824.9978     -6144.6092      4481.4436      3067.2587      932.93874      1724.0348      10731.031     -1660.116       300.02821      16.598832      140960.57      0.9201959     -7833.4094      2378.6998      38302.094    
   4228000   9102.2493     -7547.004       1845.3806     -6144.5476      4469.4606      3027.0591      966.37942      1689.9375      10795.584     -1693.3344      301.83304     -318.68515      140749.22      0.92157765    -7815.3491      2376.6277      38320.385    
   4230000   9039.1027     -7543.408       1842.3368     -6145.8363      4387.7578      3012.4732      902.16751      1709.4251      10874.187     -1835.0839      304.03069      479.48128      140267.48      0.92474276    -7816.5561      2373.5439      38338.724    
   4232000   9046.5174     -7504.0302      1886.3553     -6145.0452      4394.3035      3027.3025      971.35688      1663.7996      10752.475     -1705.9576      300.62776      315.91579      141573.74      0.91621042    -7731.1815      2386.7124      38356.921    
   4234000   8956.7702     -7576.8478      1842.2701     -6144.2518      4433.3255      3072.0347      982.4012       1686.6735      10661.165     -1704.3946      298.07483     -1078.8685      140247.62      0.9248737     -7849.3856      2377.5126      38375.169    
   4236000   8883.3773     -7600.913       1862.366      -6142.5768      4318.8101      3156.504       926.76966      1751.4624      10610.955     -1727.5776      296.67101      438.32178      140480.14      0.92334287    -7855.1949      2381.4494      38393.414    
   4238000   9091.132      -7557.6468      1838.106      -6143.8247      4381.3216      3070.1492      970.39682      1689.0291      10843.601     -1752.4689      303.17555      547.47232      140998.98      0.91994519    -7832.3784      2387.3445      38411.604    
   4240000   9113.983      -7554.0204      1854.2671     -6143.1815      4450.9702      3006.2604      960.1159       1674.12        10865.451     -1751.4683      303.78646      318.88757      140553.61      0.92286023    -7811.9882      2384.3243      38429.862    
   4242000   8761.0616     -7527.3291      1846.2706     -6145.3942      4316.5636      3014.1302      990.57275      1628.3437      10637.904     -1876.8423      297.42448     -464.94148      140926.8       0.92041638    -7796.9337      2385.7282      38448.119    
   4244000   8745.6715     -7586.464       1869.0079     -6144.8088      4279.7237      3024.6209      917.76637      1698.5549      10687.271     -1941.599       298.80472     -50.720182      140254.02      0.9248315     -7833.6741      2378.4859      38466.204    
   4246000   8828.4634     -7541.8141      1841.4978     -6144.5929      4346.2341      3033.2845      986.11631      1639.9315      10667.806     -1839.3428      298.26051     -126.12021      140886.64      0.92067876    -7817.8569      2386.797       38484.216    
   4248000   8984.7935     -7521.894       1882.0341     -6144.9394      4375.3083      3077.8189      924.97695      1603.7467      10787.742     -1802.9484      301.61379     -479.61629      141715.1       0.91529653    -7753.7815      2391.1167      38502.172    
   4250000   8810.2321     -7485.1609      1849.4482     -6146.3582      4397.2859      2976.6716      938.39047      1636.8163      10643.139     -1832.9066      297.57084      759.42795      140922.55      0.92044418    -7751.1415      2386.0821      38519.949    
   4252000   8989.3684     -7494.186       1840.1517     -6146.0423      4435.3952      3021.5558      959.69119      1655.4948      10717.308     -1727.9395      299.64453     -1265.0649      141880.13      0.9142319     -7774.2856      2398.3664      38537.937    
   4254000   8768.9155     -7490.7831      1864.6167     -6143.624       4344.1004      2993.8391      932.71444      1672.9101      10595.142     -1826.2264      296.2289      -429.56965      141145.92      0.91898754    -7740.0101      2391.8985      38555.895    
   4256000   8876.7097     -7551.7286      1864.5229     -6143.3129      4356.7661      3023.3224      908.28826      1684.1915      10734.66      -1857.9504      300.12968      560.41471      140746.77      0.92159368    -7807.3         2385.8758      38573.694    
   4258000   8881.6676     -7513.7135      1878.1046     -6145.1742      4306.8805      3048.5653      910.44868      1660.6259      10735.93      -1854.2627      300.16519      1140.5183      141052.18      0.91959826    -7752.0458      2386.8454      38591.536    
   4260000   8923.3729     -7559.6083      1860.4746     -6145.0943      4272.5056      3018.5071      970.28116      1691.7055      10814.602     -1891.2288      302.36476      656.96967      140620.97      0.9224182     -7810.1232      2384.4006      38609.56     
   4262000   9121.2356     -7522.08        1850.9297     -6145.6093      4356.527       3101.6979      931.52961      1731.2763      10816.964     -1695.7288      302.43082      334.25951      141536.99      0.91644834    -7786.1357      2392.7889      38627.628    
   4264000   9045.935      -7535.3983      1883.9023     -6142.5553      4359.9449      3083.0381      901.23664      1685.3647      10810.402     -1764.4669      302.24734      1387.3733      141016.61      0.91983021    -7763.968       2387.7096      38645.709    
   4266000   9246.5659     -7431.7397      1876.9477     -6143.56        4377.7541      3116.1455      968.319        1700.5509      10782.148     -1535.5825      301.4574       112.71456      142393.52      0.91093568    -7669.0621      2404.0373      38663.754    
   4268000   9120.7026     -7481.6166      1874.8064     -6143.7988      4432.3011      3034.3759      942.91754      1663.3252      10798.392     -1677.6893      301.91155      274.87739      141827.5       0.9145711     -7727.6262      2399.7719      38681.653    
   4270000   8944.2926     -7615.2534      1859.8857     -6144.9876      4374.3286      3082.0377      946.11461      1688.9064      10753.261     -1808.968       300.64973     -84.50122       140308.84      0.92447018    -7874.3016      2386.9127      38699.697    
   4272000   9176.5205     -7493.9532      1874.7023     -6144.5625      4418.2826      3062.4031      981.18515      1697.8871      10780.576     -1604.0555      301.41344     -396.92914      141637.64      0.9157971     -7734.4753      2400.0117      38717.678    
   4274000   9254.7414     -7471.9834      1837.177      -6144.1107      4458.4577      3069.536       980.34525      1733.4636      10791.856     -1537.1147      301.72882      441.25702      141941.42      0.91383709    -7744.8246      2402.7232      38735.534    
   4276000   9003.7806     -7533.821       1872.8804     -6145.8482      4371.8996      3078.4628      986.65804      1673.2519      10700.297     -1696.5165      299.16893     -40.148758      140943.55      0.920307      -7781.9419      2393.2532      38753.583    
   4278000   8998.5259     -7480.4518      1886.9321     -6142.7988      4393.1752      2998.2922      941.57853      1661.3957      10740.403     -1741.877       300.29024      515.61802      141712.55      0.91531301    -7710.0143      2405.8042      38771.559    
   4280000   9076.695      -7515.4969      1859.1153     -6143.6543      4411.4266      3082.856       942.86531      1683.3851      10756.198     -1679.5028      300.73185      841.69333      141714.14      0.91530269    -7767.6741      2405.6333      38789.676    
   4282000   9017.9461     -7555.4014      1839.1225     -6142.8289      4368.2656      3054.9931      935.47308      1719.9488      10798.373     -1780.4272      301.91103     -251.98471      140540.62      0.9229455     -7830.4323      2392.0652      38807.936    
   4284000   8972.1198     -7538.4409      1862.6371     -6144.537       4371.3211      3016.8075      907.34593      1666.221       10830.765     -1858.6452      302.81667     -728.94088      140303.85      0.92450302    -7794.8941      2393.1292      38826.313    
   4286000   8884.362      -7555.0965      1849.969      -6145.0099      4262.8919      3082.7081      907.27274      1675.8979      10805.729     -1921.3668      302.11668     -143.54082      140446.9       0.92356142    -7824.6349      2396.0254      38844.386    
   4288000   9059.2384     -7556.6049      1871.748      -6144.8253      4423.5377      3073.8619      966.80418      1694.7171      10730         -1670.7613      299.99938     -384.85912      140718.06      0.92178176    -7801.1575      2400.8205      38862.568    
   4290000   8997.7255     -7490.7664      1845.4291     -6145.7536      4494.5232      3072.6552      946.10815      1684.4326      10591.097     -1593.3717      296.11581     -300.659        141199.09      0.91864145    -7766.1684      2406.5123      38880.633    
   4292000   8692.3732     -7605.9465      1859.2593     -6144.4036      4382.4901      2917.1425      914.81306      1709.7158      10659.303     -1966.9293      298.02276      150.52426      139940.38      0.9269043     -7859.2895      2397.0523      38898.778    
   4294000   9051.2354     -7590.8299      1873.0369     -6144.5649      4365.5606      3078.5948      935.75254      1681.8885      10851.797     -1800.5615      303.4047       110.94432      140403.5       0.9238469     -7837.6747      2403.228       38916.945    
   4296000   9016.9314     -7600.3645      1855.1444     -6143.1771      4438.6293      3036.7773      972.93457      1638.6837      10818.304     -1801.3723      302.46826      128.22747      140067.18      0.92606514    -7860.8484      2399.8129      38935.09     
   4298000   8927.4833     -7559.6568      1862.4149     -6143.8803      4378.7319      3033.1111      936.44191      1650.3709      10769.95      -1842.4665      301.11634      457.66171      140426.44      0.92369598    -7814.0389      2405.1573      38953.362    
   4300000   9018.0022     -7480.8325      1865.1736     -6145.0519      4454.6654      3039.3377      906.92296      1694.0851      10683.702     -1665.6996      298.70494      141.47309      141535.47      0.91645817    -7734.8085      2417.0905      38971.542    
   4302000   8864.5667     -7525.4812      1881.8562     -6143.3443      4328.124       3096.0234      936.95439      1639.4027      10651.032     -1786.4649      297.79151      102.71495      140976.92      0.92008918    -7758.7792      2413.4056      38989.668    
   4304000   8919.4139     -7494.9653      1870.0884     -6144.349       4371.4664      3003.1328      923.34964      1682.5492      10708.142     -1788.728       299.38826     -590.9589       141864.57      0.91433217    -7738.5891      2422.8653      39007.939    
   4306000   8961.0776     -7619.021       1851.5626     -6144.6988      4395.9506      3021.8838      926.93905      1708.9113      10819.55      -1858.4724      302.50311      642.37403      140188.13      0.92526616    -7885.4117      2409.8047      39026.166    
   4308000   8777.5156     -7566.5143      1869.8015     -6144.0768      4378.3035      2955.2812      952.62511      1663.3108      10668.784     -1891.2689      298.28787      454.12281      140948.05      0.9202776     -7813.3584      2421.5887      39044.44     
   4310000   9202.999      -7512.1629      1869.1104     -6145.5441      4397.9851      3050.4443      1013.6848      1706.9108      10822.571     -1619.5716      302.58756      52.302556      141105.68      0.91924958    -7755.8534      2424.0003      39062.632    
   4312000   8795.7984     -7584.0273      1865.8665     -6145.0721      4424.2788      2953.1591      922.05253      1724.9509      10634.59      -1838.7915      297.33182      134.79393      140230.79      0.92498469    -7834.0927      2416.8658      39080.857    
   4314000   8970.0025     -7562.7328      1835.3349     -6145.013       4401.9965      3039.2481      931.75102      1661.5511      10807.867     -1837.8642      302.17646     -148.02585      140647.43      0.92224462    -7843.2711      2421.5612      39099.032    
   4316000   8966.0578     -7625.2233      1835.2489     -6145.2313      4426.8437      3043.6656      917.27662      1740.8677      10772.61      -1806.552       301.19071     -95.467106      139785.91      0.92792856    -7905.0441      2411.381       39117.236    
   4318000   9157.5537     -7480.0979      1861.6738     -6145.326       4383.5807      3083.5417      997.0441       1665.8206      10791.317     -1633.763       301.71373     -277.0172       141250.93      0.91830433    -7733.5264      2427.499       39135.501    
   4320000   8798.5664     -7528.5298      1859.3651     -6142.8685      4260.7266      3014.5997      985.95835      1655.2541      10694.061     -1895.4943      298.99456      56.537332      140608.81      0.92249796    -7781.5981      2422.5123      39153.648    
   4322000   8836.8957     -7557.4281      1864.9359     -6145.2886      4428.3606      3062.2674      933.69505      1633.7017      10616.652     -1779.7561      296.83029     -151.09096      140676.35      0.92205507    -7808.4168      2421.3639      39171.712    
   4324000   8917.1332     -7571.5222      1847.6204     -6145.037       4377.7526      3028.9256      898.42782      1698.4763      10782.49      -1865.3564      301.46694      284.88771      140179.87      0.92532072    -7839.7768      2417.2948      39189.709    
   4326000   9072.6177     -7469.4079      1860.4094     -6145.0673      4465.8586      3007.8379      956.73635      1697.5928      10698.658     -1626.0401      299.12309      1302.7704      141952.61      0.91376508    -7723.0772      2433.1037      39207.788    
   4328000   8794.5254     -7609.2823      1855.4278     -6145.192       4318.4254      3008.5658      964.22711      1659.312       10743.041     -1948.5161      300.36401      589.79229      139704.71      0.92846791    -7869.506       2412.9307      39225.795    
   4330000   9101.7421     -7502.7018      1861.035      -6143.3401      4418.1336      3092.3792      946.48076      1692.0118      10737.744     -1636.0016      300.21589      968.78207      141610.33      0.91597372    -7758.1901      2431.5541      39243.847    
   4332000   8917.6683     -7637.4937      1828.9152     -6144.1653      4412.5353      3074.1011      921.27845      1655.7698      10806.728     -1889.0592      302.14461     -441.22756      139157.94      0.93211598    -7930.9699      2411.3435      39261.972    
   4334000   8865.6679     -7560.7255      1845.3229     -6144.4164      4397.6441      3057.5097      937.98913      1696.0489      10636.295     -1770.6272      297.3795       6.1331546      140170.33      0.92538366    -7831.8571      2421.9939      39279.955    
   4336000   8886.3276     -7528.2883      1874.7037     -6144.6437      4323.3211      2993.7037      946.49499      1652.5415      10768.495     -1882.167       301.07565     -349.88518      141348.14      0.91767275    -7771.1852      2432.1874      39297.909    
   4338000   9062.1688     -7543.2066      1848.3791     -6144.0519      4358.5127      3041.004       994.80203      1667.3629      10839.367     -1777.1979      303.05716      643.2395       141349.55      0.91766361    -7811.5825      2436.0024      39315.857    
   4340000   9066.3115     -7589.9502      1840.2197     -6144.0861      4368.4003      3045.9742      973.58526      1727.1872      10844.981     -1778.6697      303.21414      414.47713      140826.04      0.92107495    -7867.6777      2429.2831      39333.831    
   4342000   8952.446      -7584.2969      1852.6706     -6144.5628      4311.2694      3031.47        959.59378      1747.7409      10778.561     -1826.115       301.3571       715.65088      140421.82      0.92372633    -7846.6222      2426.4926      39351.668    
   4344000   8998.8032     -7502.5278      1836.1348     -6145.767       4366.2741      3030.9162      938.82869      1646.8506      10828.093     -1829.2903      302.74198      127.48216      140804.55      0.92121553    -7787.9926      2433.2609      39369.607    
   4346000   9070.6836     -7547.939       1888.8566     -6145.1402      4426.304       2991.3146      959.65628      1679.8955      10817.736     -1747.0522      302.45239     -639.92662      141413.96      0.91724561    -7780.6658      2440.2319      39387.56     
   4348000   8945.4272     -7560.0919      1863.5215     -6143.5886      4338.9202      3007.1152      964.61928      1739.5771      10735.354     -1789.9271      300.14909      374.72021      140810.75      0.92117493    -7812.9333      2441.9935      39405.398    
   4350000   9016.9302     -7484.9729      1850.5881     -6144.6565      4382.0139      3074.7566      938.87514      1740.5162      10659.81      -1642.8794      298.03694      55.370551      141672.98      0.91556867    -7748.6814      2449.8821      39423.145    
   4352000   8880.4601     -7522.579       1865.1907     -6144.7065      4422.6199      3032.1302      966.59979      1676.4399      10584.765     -1704.305       295.93877      459.5691       141464.38      0.91691873    -7771.6887      2449.6476      39440.831    
   4354000   8958.0275     -7474.7739      1884.7773     -6143.9512      4338.5055      3077.3931      945.33471      1656.7932      10673.949     -1715.9212      298.43225      254.64301      141493.57      0.91672956    -7707.1711      2453.0453      39458.441    
   4356000   8771.4384     -7553.9348      1859.7957     -6145.219       4300.0192      3008.3496      955.64882      1645.8278      10700.951     -1929.5126      299.18721     -364.42019      140981.81      0.92005724    -7814.4757      2445.804       39476.151    
   4358000   9143.1926     -7533.013       1852.7871     -6142.8957      4324.1401      3105.485       936.17113      1733.7903      10866.728     -1723.5351      303.82215      203.19152      140833.82      0.92102408    -7801.8196      2448.5017      39494.054    
   4360000   9028.7858     -7527.0532      1836.01       -6145.9663      4431.9555      3050.34        948.81121      1687.365       10747.323     -1718.5376      300.48373     -635.82381      141101.06      0.91927969    -7805.6107      2451.0216      39512.208    
   4362000   8891.0821     -7535.1485      1843.0589     -6145.828       4313.5747      3076.7148      931.53011      1659.8621      10747.318     -1856.2359      300.48358      380.06284      140608.4       0.92250064    -7812.3495      2447.8524      39530.319    
   4364000   9057.8799     -7525.7781      1851.6778     -6145.8186      4495.1429      3017.6008      982.77512      1712.157       10670.123     -1612.2431      298.32529     -190.49147      141640.93      0.91577579    -7788.7252      2463.4808      39548.418    
   4366000   8996.1255     -7526.2406      1849.7175     -6143.7703      4432.3879      3108.8562      952.00246      1616.841       10706.331     -1710.2058      299.33763     -562.67142      140579.12      0.92269275    -7796.9832      2453.5269      39566.585    
   4368000   9087.9908     -7574.1906      1864.7708     -6144.3525      4467.8704      3014.7293      960.30463      1702.4981      10796.361     -1708.3698      301.85476     -319.47622      140717.79      0.92178353    -7821.5133      2456.6365      39584.769    
   4370000   9155.2816     -7541.1421      1858.1054     -6143.928       4426.3522      3032.4279      966.6865       1670.6796      10886.1       -1730.8185      304.36378     -274.73523      141063.74      0.91952287    -7797.195       2457.286       39602.988    
   4372000   9085.4668     -7471.0052      1869.6473     -6145.6486      4313.272       3106.9075      934.07679      1666.207       10812.01      -1726.5432      302.2923      -430.34449      141508.75      0.91663121    -7721.3663      2468.6363      39621.162    
   4374000   8964.5376     -7498.6037      1861.1133     -6144.7846      4386.2913      2989.6595      955.04244      1676.3819      10739.437     -1774.8998      300.26324      316.24305      141238.9       0.91838255    -7753.0579      2469.3914      39639.181    
   4376000   9043.8223     -7494.9755      1871.8355     -6144.3862      4349.2615      3092.4413      979.75986      1635.4519      10754.434     -1710.6115      300.68253      176.64638      141249.79      0.91831173    -7740.7376      2468.5914      39657.23     
   4378000   9232.4596     -7519.8368      1872.7772     -6144.0736      4483.8994      3038.7495      967.35975      1681.1817      10852.402     -1619.9427      303.42163      135.77085      141501.78      0.91667639    -7764.7813      2475.4474      39675.228    
   4380000   8980.8759     -7493.6701      1839.2767     -6145.3437      4330.7076      3019.913       941.79972      1647.2833      10840.909     -1860.0335      303.10029      177.74972      141078.84      0.91942449    -7772.4141      2474.9967      39693.086    
   4382000   8948.8226     -7572.4174      1860.8326     -6144.1297      4381.0152      3045.3224      945.74433      1637.0087      10795.446     -1846.6239      301.8292      -33.433921      140706.35      0.92185845    -7830.6241      2477.1274      39710.98     
   4384000   9246.1687     -7454.0044      1887.2178     -6144.8167      4439.0207      3045.3647      979.77441      1767.27        10726.342     -1480.1736      299.89712     -632.14684      142089.44      0.91288515    -7685.229       2490.1029      39728.934    
   4386000   8816.4864     -7466.9117      1870.3431     -6146.1496      4329.2964      2974.4461      944.46233      1617.1166      10693.883     -1877.3968      298.9896       79.504753      141666.25      0.91561211    -7721.726       2490.7279      39746.864    
   4388000   9045.3041     -7494.7215      1858.3561     -6145.413       4401.5947      3008.2031      946.76899      1685.0014      10785.514     -1740.2101      301.5515      -638.49971      140905.93      0.92055273    -7752.7333      2485.0191      39764.849    
   4390000   8912.3544     -7555.1386      1852.505      -6143.2685      4345.2505      3054.0806      952.49411      1658.9955      10747.436     -1835.0815      300.48688     -314.37744      140351.37      0.92419002    -7814.744       2481.3635      39782.654    
   4392000   9026.3977     -7509.8752      1854          -6144.7235      4338.1235      3017.029       975.39213      1716.1448      10780.307     -1753.9092      301.40591      803.8743       140773.14      0.92142104    -7772.0233      2486.8722      39800.53     
   4394000   8848.9151     -7632.5015      1883.4781     -6144.587       4371.7225      3053.3195      982.96085      1655.3296      10679.193     -1830.2779      298.57888     -500.73895      139728.64      0.92830889    -7864.6715      2476.4113      39818.759    
   4396000   8954.1959     -7569.8309      1853.754      -6144.9788      4406.455       3096.3789      924.942        1674.4384      10713.037     -1758.8414      299.52513      576.14241      140177.79      0.92533445    -7836.353       2488.2938      39836.744    
   4398000   8986.472      -7534.7811      1851.8101     -6145.4983      4428.8422      3130.179       919.47212      1697.1969      10639.251     -1652.779       297.46214      503.16331      140392.39      0.92392002    -7806.9752      2491.529       39854.79     
   4400000   9059.9239     -7558.943       1856.237      -6146.3789      4368.8464      3044.1139      963.37323      1678.512       10854.163     -1794.2393      303.47086     -463.9354       140672.18      0.92208239    -7817.4399      2495.1237      39872.74     
   4402000   9239.3682     -7466.0938      1845.559      -6144.4774      4472.6167      3022.7155      934.1525       1716.9282      10857.967     -1618.5993      303.57722      546.74197      141370.8       0.91752563    -7737.8662      2503.4085      39890.744    
   4404000   9057.9419     -7529.0808      1850.2544     -6145.6788      4442.083       3044.9322      951.75401      1665.033       10778.645     -1720.703       301.35945     -888.92364      141197.72      0.91865035    -7795.3282      2504.7645      39908.884    
   4406000   8942.27       -7599.3524      1840.8221     -6145.6818      4323.2434      2976.9294      971.33745      1693.2813      10881.691     -1939.4205      304.24049      369.0671       139913.31      0.92708359    -7878.4722      2487.7464      39927.092    
   4408000   8994.8094     -7568.3997      1836.7073     -6144.6884      4389.0359      3096.1019      925.55106      1716.7512      10743.75      -1748.9408      300.38383     -452.91728      140744.9       0.92160595    -7849.7082      2497.5088      39945.24     
   4410000   9069.274      -7507.7407      1847.9113     -6143.9621      4355.317       3043.1125      959.2573       1701.6774      10813.701     -1744.4271      302.33958     -80.377067      140979.58      0.92007181    -7775.0458      2502.8055      39963.466    
   4412000   8987.8657     -7542.1158      1854.1589     -6145.0731      4370.627       3014.5639      952.02911      1658.2077      10825.468     -1837.6023      302.66857      693.92884      140631.6       0.92234844    -7803.4329      2500.1094      39981.81     
   4414000   8952.1333     -7512.9423      1874.4346     -6144.4783      4334.3938      3070.3572      903.61536      1715.9684      10710.784     -1758.6512      299.46214     -323.33483      141493.03      0.91673305    -7757.2674      2510.2932      40000.012    
   4416000   9093.3684     -7560.327       1827.5139     -6145.4257      4322.6786      3159.3866      976.98908      1695.5257      10817.027     -1723.6588      302.43258      878.6137       140764.2       0.92147957    -7845.746       2503.2816      40018.24     
   4418000   8965.4025     -7568.559       1868.5303     -6145.8229      4400.6555      3123.3711      938.23697      1635.6422      10713.348     -1747.9459      299.53383      23.471487      140487.67      0.92329342    -7819.9464      2506.0441      40036.541    
   4420000   8908.0856     -7516.6771      1873.105      -6143.9303      4299.5871      3010.0444      962.4908       1621.8559      10801.61      -1893.5242      302.00152     -220.40247      141708.81      0.91533715    -7757.9767      2523.829       40054.852    
   4422000   9203.0539     -7467.5109      1892.5051     -6143.2873      4450.6288      3008.1951      951.63321      1692.8878      10818.002     -1614.9482      302.45983     -74.019015      141793.49      0.91479048    -7692.7741      2526.3557      40073.14     
   4424000   9030.0595     -7457.1635      1849.6037     -6144.7702      4414.9306      3024.0124      942.71611      1726.5299      10674.2       -1644.1409      298.43929     -556.13193      142172.19      0.91235381    -7720.9621      2537.2589      40091.365    
   4426000   9083.5216     -7548.3402      1875.2462     -6144.711       4458.9571      3021.7877      896.16402      1749.7906      10774.627     -1691.1055      301.24711     -310.46829      140589.23      0.92262639    -7789.493       2516.6364      40109.854    
   4428000   9054.6637     -7599.2839      1833.0138     -6144.9897      4396.7141      3152.3218      1000.0417      1672.9605      10743.885     -1689.2216      300.3876       458.77546      140269.29      0.9247308     -7882.8545      2518.8274      40128.314    
   4430000   8756.4206     -7580.2483      1859.1714     -6145.2841      4372.803       3000.6714      948.72605      1675.8266      10624.755     -1868.334       297.05684     -174.57293      140084.94      0.92594778    -7836.5239      2518.3641      40146.656    
   4432000   9113.2285     -7499.5126      1883.0161     -6144.1334      4458.2156      2977.7156      964.36351      1675.388       10798.176     -1684.9471      301.90551      683.68266      141073.56      0.91945885    -7733.7305      2533.4527      40164.944    
   4434000   9122.5988     -7487.0148      1865.0185     -6145.6207      4455.5175      3057.6545      979.76654      1681.931       10715.346     -1592.7475      299.58969     -283.45193      141630.8       0.91584128    -7743.8958      2539.4268      40183.236    
   4436000   8948.0549     -7519.3952      1853.909      -6145.4516      4436.7213      3014.1507      963.41007      1666.9654      10677.745     -1729.6903      298.5384      -419.70418      140971.97      0.92012149    -7781.4327      2530.2115      40201.679    
   4438000   8940.1848     -7570.9479      1855.2877     -6144.3566      4392.9934      3032.2423      968.28022      1666.4513      10740.234     -1800.0496      300.28553      435.42921      140938.5       0.92033997    -7831.9006      2531.1799      40219.934    
   4440000   9137.2055     -7515.5181      1883.1954     -6144.3345      4452.1187      3091.2734      981.89944      1693.6528      10694.918     -1557.7129      299.01854     -885.98767      141747.78      0.91508551    -7747.6974      2542.2929      40238.273    
   4442000   8841.4413     -7597.5725      1854.0219     -6143.4871      4393.5816      3027.4417      930.52404      1637.626       10739.306     -1897.8643      300.25956     -138.74228      139631.88      0.92895218    -7857.8463      2519.0528      40256.473    
   4444000   8742.2409     -7545.7964      1823.5455     -6144.3193      4382.8446      2994.4604      958.2481       1659.575       10613.683     -1871.4421      296.74729     -261.15379      141090.26      0.91935006    -7836.701       2540.6245      40274.857    
   4446000   9059.3765     -7524.1379      1892.2965     -6145.5664      4512.3687      3034.5478      945.4753       1673.6764      10670.716     -1611.3396      298.34187     -250.78014      141085.41      0.91938163    -7750.0558      2543.7788      40293.176    
   4448000   8916.1617     -7532.8817      1830.2654     -6145.7491      4388.9589      3062.1877      904.5613       1713.2563      10695.563     -1779.4012      299.03656      692.96115      140834.4       0.92102024    -7823.214       2537.6353      40311.401    
   4450000   9093.3695     -7521.8419      1855.7902     -6144.0982      4476.2109      3157.3074      936.32168      1699.8883      10633.791     -1540.4216      297.30949      276.45716      141051.65      0.91960168    -7782.5225      2542.0341      40329.42     
   4452000   8887.832      -7507.6132      1871.0671     -6144.9643      4341.9734      3046.212       957.73374      1648.2732      10675.15      -1787.318       298.46584      85.973219      140992.1       0.9199901     -7755.4244      2542.6703      40347.35     
   4454000   9181.0853     -7537.8762      1884.6333     -6143.4617      4512.3693      3043.1848      906.83928      1683.2494      10832.147     -1651.0619      302.85531     -827.79005      141662.76      0.91563466    -7766.3166      2551.4031      40365.43     
   4456000   9071.5421     -7383.8808      1846.499      -6144.5787      4391.096       3088.0358      960.29316      1635.9997      10678.078     -1606.5359      298.5477      -89.084461      143052.69      0.90673822    -7653.5709      2567.883       40383.469    
   4458000   8808.7489     -7546.6325      1860.6733     -6145.8195      4340.8532      3019.1669      923.03911      1731.9674      10625.501     -1816.7521      297.0777      -249.06534      141622.33      0.91589607    -7802.283       2549.6633      40401.456    
   4460000   8839.8277     -7568.5252      1848.3402     -6144.1844      4393.2204      3010.4846      923.0173       1693.0919      10684.383     -1844.5552      298.72398      156.93482      140676.9       0.92205146    -7836.0293      2545.1233      40419.392    
   4462000   8988.776      -7545.0066      1879.3969     -6146.2974      4428.2663      3043.0084      946.39669      1653.4029      10729.609     -1740.8327      299.98845     -78.69344       141299.94      0.91798578    -7788.336       2549.2824      40437.36     
   4464000   8992.8287     -7492.0743      1870.6432     -6142.0564      4457.9181      2966.6138      934.43874      1696.7461      10700.599     -1707.7708      299.17738     -485.00202      141156.26      0.9189202     -7733.0028      2551.4329      40455.416    
   4466000   8939.4584     -7526.6689      1868.1923     -6143.3443      4471.9219      3059.3549      928.33912      1673.821       10607.842     -1668.3841      296.58399      416.52976      141145.78      0.9189884     -7776.2606      2550.1735      40473.312    
   4468000   9134.2767     -7530.5703      1856.6581     -6143.4272      4490.2608      3039.7449      948.52735      1659.6958      10813.387     -1679.1105      302.3308      -516.91051      140705.57      0.92186354    -7788.0484      2546.2476      40491.196    
   4470000   8868.186      -7655.1158      1850.9746     -6144.3994      4441.3969      3029.9228      970.17503      1641.201       10734.031     -1865.8449      300.11209     -77.570686      138819.33      0.93438961    -7922.1352      2523.8682      40508.998    
   4472000   8849.5878     -7590.2088      1848.9652     -6143.1637      4442.8089      2966.6015      980.06085      1646.0589      10698.465     -1848.8771      299.1177      -759.96574      140935.35      0.92036053    -7854.8359      2547.4608      40526.952    
   4474000   8865.1394     -7557.4421      1877.5309     -6143.2896      4414.8715      2982.9337      912.65149      1687.3371      10690.546     -1825.4071      298.89631      619.42398      140937.37      0.92034735    -7795.3974      2555.8626      40544.899    
   4476000   9074.3939     -7501.8296      1849.7638     -6143.1913      4306.0772      3050.4089      914.94797      1662.7311      10935.486     -1861.092       305.74455     -114.95782      142113         0.91273381    -7770.2336      2570.8513      40562.711    
   4478000   9049.1902     -7536.111       1875.178      -6145.3103      4332.7608      3056.9811      952.54779      1683.8092      10829.335     -1780.1444      302.77668      742.10978      141059.13      0.91955292    -7773.942       2559.9137      40580.821    
   4480000   8942.7241     -7549.7072      1859.8304     -6145.0005      4454.9679      2958.8401      946.61268      1676.977       10740.204     -1797.4797      300.28468     -310.02665      140620.37      0.92242212    -7802.1465      2561.1731      40599.034    
   4482000   8862.9139     -7597.3853      1814.1453     -6144.5903      4445.6639      3096.8679      963.39409      1672.9485      10611.87      -1748.9559      296.69659     -1485.282       139636.16      0.92892371    -7903.4667      2547.8965      40617.228    
   4484000   8915.1162     -7531.8594      1859.3826     -6143.4442      4370.5585      3058.2293      959.29389      1687.221       10655.734     -1740.6183      297.923       -151.59605      141055.36      0.9195775     -7788.866       2564.1305      40635.512    
   4486000   8775.1118     -7558.5286      1862.6335     -6145.4087      4276.244       2992.3256      892.97154      1693.1651      10761.709     -1986.5976      300.88595     -319.25818      140409.12      0.92380994    -7810.6205      2553.8718      40653.743    
   4488000   9149.3221     -7541.5769      1845.1866     -6144.8725      4408.3593      3066.3696      923.47736      1668.8582      10923.52      -1774.1982      305.41001      491.8347       140342.26      0.92425004    -7810.8964      2557.5341      40671.884    
   4490000   9164.2789     -7476.6412      1882.88       -6145.791       4350.0111      3117.9323      989.80986      1722.1195      10723.958     -1559.6795      299.83047     -151.80901      141502.65      0.91667071    -7711.3336      2572.5706      40689.919    
   4492000   8752.7176     -7518.0381      1873.5107     -6142.7856      4251.6611      3081.3904      921.73317      1677.233       10608.013     -1855.2953      296.58876     -58.617892      141655.02      0.91568475    -7755.6461      2571.3242      40708.017    
   4494000   9083.294      -7539.5405      1856.1283     -6144.5514      4437.2847      3042.9351      982.96728      1644.7883      10803.282     -1719.9884      302.04828      285.74292      140586.22      0.9226462     -7798.4235      2563.3102      40726.134    
   4496000   8867.7352     -7573.2144      1845.7574     -6145.5251      4411.0522      3079.6957      951.95946      1686.8791      10611.131     -1743.3957      296.67593      124.9505       140317.76      0.92441139    -7843.1656      2563.2018      40744.333    
   4498000   8886.2681     -7550.0023      1888.0445     -6146.3674      4394.9894      2975.5802      902.65396      1629.446       10791.924     -1905.6556      301.73071      177.92986      140993.99      0.91997775    -7784.5017      2571.1854      40762.6      
   4500000   9161.8587     -7449.4638      1862.879      -6144.8536      4412.7476      3037.4688      926.37561      1698.2512      10818.454     -1656.5953      302.47247     -59.51675       141789.12      0.91481871    -7706.5662      2576.9869      40780.727    
   4502000   9024.5648     -7507.8257      1850.5004     -6143.8779      4352.6655      3111.2169      934.91314      1707.1502      10719.822     -1695.2575      299.71483      486.07646      140813.16      0.92115918    -7777.1985      2568.4408      40798.903    
   4504000   9015.9822     -7578.0907      1865.8688     -6145.6759      4360.359       3147.6303      948.53344      1689.9528      10727.404     -1711.4222      299.92682     -662.61206      140172.4       0.92537001    -7832.1858      2561.8867      40817.065    
   4506000   9116.9861     -7507.3671      1889.5949     -6143.3731      4382.5867      3067.4531      944.48323      1719.6851      10763.923     -1646.9372      300.94785     -512.2429       141346.3       0.91768469    -7734.2475      2576.4565      40835.086    
   4508000   9020.2131     -7530.6947      1852.5189     -6144.7681      4305.6051      3021.2282      1002.1963      1747.652       10766.475     -1746.2623      301.0192      -243.97974      140913.99      0.92050009    -7788.1325      2574.5062      40853.143    
   4510000   9033.782      -7560.6673      1857.9417     -6145.2054      4346.9152      3048.9887      988.96625      1742.4966      10754.346     -1720.5642      300.68008     -270.51465      139976.58      0.9266646     -7820.0263      2566.6658      40871.122    
   4512000   9211.5142     -7555.4243      1859.7745     -6143.5184      4514.3715      3120.0271      939.87966      1695.6932      10780.711     -1569.1968      301.41721     -252.2704       141042.89      0.9196588     -7811.8949      2575.7685      40889.173    
   4514000   9053.071      -7523.708       1838.369      -6145.9876      4419.2847      3059.0496      969.44594      1654.7109      10781.906     -1728.8355      301.45064      778.04315      140786.94      0.92133078    -7800.3624      2575.8868      40907.202    
   4516000   8861.2526     -7538.6898      1864.5321     -6145.8657      4403.2958      3109.608       958.67178      1679.5407      10530.16      -1668.9071      294.41206      315.96595      140846.95      0.92093817    -7790.7054      2578.6357      40925.319    
   4518000   9023.826      -7447.7821      1834.5159     -6143.4406      4420.4784      3053.462       944.61196      1683.0825      10678.898     -1655.072       298.57063     -266.97458      141452.13      0.91699813    -7729.6666      2587.0484      40943.213    
   4520000   8960.8807     -7483.094       1870.6104     -6143.0266      4372.4665      3068.1608      941.687        1652.4621      10681.614     -1720.7337      298.64658     -567.7676       141550.62      0.91636008    -7732.8658      2586.045       40961.126    
   4522000   8785.8566     -7549.6239      1845.0792     -6143.3989      4326.3648      3065.5061      900.60964      1648.0053      10693.314     -1907.4577      298.9737      -428.9801       140206.73      0.92514347    -7821.48        2573.3213      40979.131    
   4524000   9007.7901     -7532.1555      1859.874      -6143.4841      4416.1484      3060.4634      929.50003      1704.4123      10713.031     -1705.2414      299.52497     -126.43431      141273.75      0.91815599    -7787.877       2579.1353      40997.128    
   4526000   8894.3979     -7544.8233      1888.3378     -6144.5046      4321.7037      3017.0875      1003.012       1653.6072      10699.977     -1805.5796      299.15999      1161.5684      141368.37      0.91754143    -7769.5342      2579.7634      41015.215    
   4528000   8910.5104     -7578.3646      1845.9975     -6145.5813      4267.8191      3015.3123      980.96691      1726.6108      10797.75      -1887.2393      301.89359      415.86292      140811.31      0.92117127    -7848.3648      2572.9833      41033.407    
   4530000   8869.8532     -7544.8504      1867.8116     -6144.9078      4371.8586      3040.2911      927.44368      1678.0895      10674.117     -1804.2637      298.43696     -460.74985      141327.47      0.91780696    -7794.5806      2582.7365      41051.563    
   4532000   8960.3627     -7550.1303      1858.2716     -6142.9905      4419.5641      3012.5365      919.22301      1641.3163      10802.572     -1842.2092      302.02842     -79.980474      140694.34      0.92193717    -7809.7169      2575.3434      41069.551    
   4534000   9016.9541     -7563.992       1864.1256     -6145.6489      4401.1977      3005.8522      927.52171      1717.4499      10810.448     -1793.4938      302.24862      168.12004      140605.07      0.92252245    -7817.3814      2574.1512      41087.628    
   4536000   8994.6634     -7558.7896      1854.4458     -6144.3412      4371.9417      3053.3044      963.39456      1655.6066      10799.101     -1804.4378      301.93138     -6.8615564      141050.26      0.91961077    -7815.4634      2583.0592      41105.543    
   4538000   8823.9283     -7536.2579      1843.7008     -6145.2941      4387.5157      3035.2603      886.07417      1663.9703      10688.959     -1865.0308      298.85193      540.10342      140730.47      0.92170042    -7805.4372      2580.6159      41123.523    
   4540000   9000.9644     -7482.719       1864.9882     -6145.3041      4307.0232      3033.5904      951.05317      1683.6183      10788.714     -1787.7499      301.64097      134.47369      141197.93      0.91864901    -7733.2869      2586.196       41141.413    
   4542000   9300.2059     -7496.2949      1852.7996     -6144.8326      4448.8825      3093.2128      950.69874      1736.1987      10859.541     -1559.3351      303.62122     -229.44743      141832.23      0.91454063    -7757.4223      2597.0529      41159.578    
   4544000   8805.4078     -7623.9361      1844.4672     -6145.2879      4289.6432      2968.3295      979.16647      1716.1055      10776.92      -1971.5122      301.31122     -603.98927      139861.52      0.92742691    -7892.1226      2577.3869      41177.763    
   4546000   8908.52       -7571.358       1870.2186     -6145.7823      4350.5107      2965.0861      997.12896      1690.0096      10752.706     -1844.1863      300.63423      121.24381      141362.01      0.91758272    -7815.2904      2598.1777      41195.981    
   4548000   9240.4771     -7523.8883      1844.7141     -6145.6852      4390.0773      3013.4735      995.95036      1724.4222      10941.413     -1700.936       305.91027      575.82605      141138.37      0.91903668    -7794.768       2597.8559      41214.082    
   4550000   8933.2576     -7493.0947      1860.6507     -6144.0272      4394.2602      2993.1498      987.85997      1691.5354      10642.923     -1709.6658      297.56482      291.60124      141601.92      0.91602809    -7746.3292      2607.1523      41232.381    
   4552000   8914.6738     -7532.435       1875.4372     -6143.1725      4381.5226      3067.0821      933.84813      1696.9851      10635.406     -1720.7324      297.35465      55.266854      140914.85      0.92049442    -7770.0554      2599.5167      41250.577    
   4554000   8997.3973     -7519.0557      1868.7921     -6144.523       4395.9326      3057.666       941.49652      1648.1218      10748.967     -1751.5696      300.52968      240.56349      140809.75      0.92118148    -7764.9357      2603.5662      41268.855    
   4556000   9090.0521     -7471.7506      1893.9165     -6144.4196      4355.4219      3133.3619      987.28306      1695.4508      10640.788     -1550.7362      297.50512     -295.46382      142135.51      0.91258921    -7693.6094      2621.2571      41287.181    
   4558000   9234.8518     -7431.5215      1889.9275     -6143.989       4358.5179      3037.8244      984.14738      1715.7513      10824.194     -1589.342       302.63294     -306.39019      142284.25      0.91163527    -7655.97        2626.0074      41305.31     
   4560000   8953.0364     -7566.4665      1880.7613     -6144.3965      4377.9532      3069.1489      934.6355       1700.5134      10700.887     -1747.8508      299.18542     -565.29492      140458.35      0.92348616    -7802.8302      2606.2561      41323.408    
   4562000   9087.8736     -7536.0045      1851.3685     -6144.6304      4305.0229      3049.711       961.02481      1716.0206      10885.361     -1797.4871      304.34311      928.86136      140268.88      0.92473353    -7799.4845      2600.3205      41341.859    
   4564000   8784.2898     -7596.2054      1873.0739     -6145.307       4270.5718      3081.4532      1001.4953      1670.6401      10628.568     -1844.2782      297.16346      173.77205      140567.84      0.9227668     -7836.3597      2604.5234      41360.167    
   4566000   9029.2212     -7488.0972      1882.3858     -6144.813       4321.9925      3043.5184      983.12332      1688.091       10743.02      -1713.7991      300.36342      274.95343      142043.01      0.9131835     -7723.0686      2622.7452      41378.269    
   4568000   8796.978      -7557.9195      1839.5653     -6145.1263      4354.9919      2996.3132      919.26276      1650.499       10739.392     -1942.4136      300.26196      359.31876      140305.49      0.92449226    -7832.137       2607.0777      41396.32     
   4570000   9055.0989     -7531.3682      1853.5877     -6144.6735      4409.7969      3063.8915      938.88318      1701.543       10763.438     -1708.3395      300.93429     -467.84062      141353.03      0.91764098    -7795.1708      2619.5296      41414.341    
   4572000   8908.3097     -7633.6358      1860.5477     -6145.7614      4350.8281      2989.2741      963.56201      1716.3339      10807.161     -1898.8515      302.15673     -150.08963      140334.99      0.92429792    -7888.7459      2606.472       41432.445    
   4574000   8970.7804     -7579.9977      1831.6887     -6143.6296      4506.9278      3016.1919      946.48282      1674.4976      10718.619     -1747.8386      299.68119      765.9839       139720         0.92836628    -7862.0933      2605.773       41450.418    
   4576000   9016.2563     -7558.6228      1841.6785     -6143.4507      4379.5325      3107.8809      925.52621      1673.5941      10790.118     -1773.8613      301.68021      779.66458      140386.74      0.92395719    -7831.7061      2617.9139      41468.455    
   4578000   8894.4666     -7444.6099      1868.138      -6145.5068      4349.7271      3037.5826      919.20113      1685.2774      10624.657     -1730.1905      297.05411     -414.42071      142171.1       0.91236078    -7695.1749      2638.8726      41486.622    
   4580000   8912.4233     -7578.2036      1860.8884     -6144.9169      4248.3442      3084.743       979.57224      1672.4749      10789.521     -1877.0978      301.66353      583.17688      140578.49      0.92269688    -7834.9592      2621.4815      41504.788    
   4582000   8963.8339     -7496.1864      1833.3631     -6145.9968      4413.1896      2992.5901      935.11345      1668.8472      10762.914     -1799.0799      300.91962     -100.59836      141722.96      0.91524576    -7781.5013      2631.4014      41523.107    
   4584000   9046.2132     -7457.5377      1843.9457     -6144.7874      4299.7029      3082.0736      938.53158      1657.7958      10826.489     -1780.2753      302.6971       572.83925      141465.58      0.91691095    -7727.6205      2633.3086      41541.459    
   4586000   8987.5093     -7609.0451      1822.7873     -6145.1046      4381.6332      3081.3508      973.95487      1721.313       10760.62      -1773.1106      300.85549      1221.3791      139897.12      0.92719087    -7902.0526      2616.1127      41559.77     
   4588000   8909.2998     -7483.1197      1872.5409     -6144.6417      4457.6739      3041.8124      908.09488      1647.5008      10609.438     -1700.1385      296.62861     -273.7733       141445.05      0.91704404    -7726.2564      2630.7243      41578.166    
   4590000   8994.3034     -7566.4676      1863.2598     -6146.3554      4383.3111      3047.545       943.00633      1717.4625      10752.542     -1758.2384      300.62963      360.2198       140332.52      0.92431419    -7817.9905      2623.5753      41596.392    
   4592000   8804.0913     -7602.7183      1846.0904     -6145.1798      4382.202       3015.0114      934.99318      1662.5297      10711.163     -1907.0715      299.47272      443.97909      140537.74      0.92296446    -7875.2811      2624.9193      41614.446    
   4594000   9114.6132     -7505.1129      1853.5806     -6144.6675      4372.4451      3093.3009      930.98946      1673.1043      10840.973     -1726.36        303.10208     -425.3824       141537.66      0.91644397    -7772.6146      2637.3534      41632.457    
   4596000   8888.339      -7585.3989      1867.8803     -6145.5798      4349.2706      3087.4899      927.63891      1682.4845      10704.553     -1816.2144      299.28793      278.42414      140237.77      0.92493864    -7832.7759      2630.6469      41650.539    
   4598000   8933.996      -7540.0172      1843.6148     -6145.0139      4352.6513      3054.8783      925.62895      1736.9843      10705.269     -1771.2735      299.30795     -636.41938      140536.47      0.92297279    -7817.0033      2638.8786      41668.463    
   4600000   8980.6752     -7468.9233      1869.3561     -6145.1144      4437.2973      3085.6638      969.43184      1630.4862      10602.478     -1621.8024      296.434       -580.63171      141135.91      0.91905269    -7717.9636      2647.4487      41686.429    
   4602000   8826.6125     -7556.757       1875.0703     -6144.5777      4361.7048      3011.2539      961.4276       1718.131       10600.36      -1773.7471      296.37478     -393.10577      140697.7       0.9219151     -7794.5029      2641.6876      41704.445    
   4604000   8952.3862     -7451.7447      1845.817      -6144.985       4342.8229      2972.6542      950.4868       1738.2433      10699.092     -1746.7055      299.13522     -533.17413      141820.12      0.9146187     -7724.5235      2655.0634      41722.289    
   4606000   8844.7471     -7550.6044      1841.4041     -6144.5187      4332.6292      3054.8716      942.37096      1659.8664      10708.728     -1863.9809      299.40464     -735.49477      140758.18      0.92151899    -7827.235       2639.8577      41740.147    
   4608000   8865.6419     -7573.369       1853.8129     -6145.7769      4324.9803      3001.4278      907.6948       1744.0118      10752.86      -1887.2184      300.63854     -340.96633      140809.63      0.92118229    -7839.1974      2646.1091      41758.194    
   4610000   9009.324      -7533.0342      1846.1787     -6144.2648      4360.6064      3066.1015      946.19228      1669.045       10798.499     -1789.1752      301.91455     -686.0244       141241.92      0.91836286    -7805.396       2652.4501      41776.234    
   4612000   8964.0896     -7470.1583      1865.6926     -6145.7558      4443.5494      3035.3814      943.07957      1633.8603      10658.44      -1694.3509      297.99866      1051.7842      141411.7       0.91726027    -7722.4421      2658.6316      41794.045    
   4614000   9170.6359     -7493.4041      1883.8181     -6142.3225      4351.7025      3074.1228      955.42936      1702.2178      10839.072     -1668.4359      303.04892      118.25999      141357.41      0.91761258    -7725.9541      2656.7795      41811.795    
   4616000   8859.2363     -7535.559       1841.7431     -6142.959       4548.5177      3035.3758      952.30259      1662.6769      10497.138     -1637.902       293.48882     -822.15379      141165.32      0.91886122    -7811.378       2659.1873      41829.773    
   4618000   9270.6812     -7592.882       1817.1022     -6145.1767      4511.6394      3153.2951      949.75772      1714.4731      10862.472     -1591.791       303.70317      580.69307      140346.4       0.92422278    -7890.0964      2650.256       41847.981    
   4620000   8878.9853     -7601.2715      1843.4414     -6144.1182      4340.9086      3038.1523      938.94589      1704.6197      10758.307     -1879.3217      300.79082      274.99802      139645.9       0.92885889    -7873.4971      2642.8384      41866.169    
   4622000   9030.0625     -7494.8001      1890.6381     -6143.824       4409.5793      2926.0954      911.72222      1691.1757      10839.476     -1809.4134      303.06022     -430.4327       142242         0.91190604    -7719.7424      2672.6562      41884.332    
   4624000   9129.2483     -7510.2627      1905.3619     -6145.0929      4352.3817      3067.4847      963.71285      1699.3199      10796.343     -1667.0946      301.85426      6.9779436      141659.05      0.91565868    -7726.5375      2667.5448      41902.595    
   4626000   8861.0055     -7479.2953      1834.1472     -6145.1574      4256.0231      3043.3441      962.56597      1702.897       10686.481     -1825.4754      298.78264      392.12259      141828.34      0.91456573    -7756.6074      2670.1615      41920.749    
   4628000   9055.3693     -7498.6035      1861.9194     -6144.6584      4406.7454      3070.219       934.45379      1704.049       10721.245     -1665.8753      299.7546      -314.98429      141753.18      0.91505065    -7748.1636      2672.837       41938.989    
   4630000   8584.1656     -7548.3261      1832.5472     -6144.7585      4346.1454      2994.9904      893.44342      1635.9135      10574.21      -1990.0447      295.64367     -250.82758      140715.64      0.9217976     -7833.464       2658.8753      41957.18     
   4632000   8972.3082     -7532.4085      1847.2107     -6146.2921      4451.7689      3088.0141      931.01509      1616.2225      10716.778     -1744.4694      299.6297       275.52351      141021.64      0.91979742    -7807.4566      2664.1946      41975.376    
   4634000   9028.742      -7542.8354      1844.7894     -6144.4808      4458.6249      3082.1457      947.70667      1677.6873      10705.104     -1676.3621      299.30333     -477.87014      140611.99      0.92247708    -7809.1968      2662.494       41993.669    
   4636000   8919.1068     -7513.0183      1858.1944     -6145.6672      4269.1202      3022.8128      960.49232      1672.9846      10794.188     -1875.0813      301.79402     -264.92316      141431.6       0.91713124    -7767.7533      2667.3126      42011.893    
   4638000   8765.2873     -7610.9847      1840.4552     -6145.6337      4352.8288      3029.5889      944.75181      1709.2168      10645.064     -1879.7768      297.62467      935.41071      139855.15      0.92746914    -7885.5843      2653.7644      42030.149    
   4640000   8892.5905     -7556.7039      1821.0556     -6145.0395      4265.4606      3039.615       952.94574      1680.3222      10834.935     -1942.3441      302.93325     -37.793827      140453.86      0.92351567    -7848.6114      2662.6335      42048.428    
   4642000   8831.1199     -7530.4107      1864.3592     -6145.7164      4300.6649      2976.7604      956.54124      1678.9609      10729.96      -1898.8406      299.99828      855.06326      140856.77      0.92087399    -7782.1532      2667.5509      42066.615    
   4644000   8964.8419     -7540.9195      1869.1389     -6144.6607      4417.3576      2997.0952      927.81368      1633.4219      10805.595     -1840.7529      302.11294     -118.23466      141347.35      0.91767788    -7789.2913      2672.8099      42084.644    
   4646000   8723.4701     -7587.6207      1872.1173     -6144.1838      4259.9615      3051.8218      928.37129      1622.6935      10720.309     -1996.8391      299.72844      965.14207      140247.92      0.92487171    -7827.9545      2667.4457      42102.58     
   4648000   8970.2042     -7527.9696      1874.0843     -6143.5576      4378.2766      3022.5401      947.45357      1658.1791      10761.198     -1790.9935      300.87164      208.71699      141524.91      0.91652653    -7770.9019      2687.3351      42120.376    
   4650000   8799.6712     -7497.2818      1879.2471     -6145.2305      4403.2294      3022.9639      903.77657      1637.4624      10595.504     -1795.8331      296.23903     -525.71579      141649.87      0.91571799    -7737.3958      2688.0748      42138.211    
   4652000   8851.929      -7570.1772      1838.8566     -6144.3641      4403.4517      3058.2562      922.21606      1661.5488      10682.141     -1830.2118      298.66129     -297.06118      140639.9       0.92229398    -7852.389       2676.6746      42156.061    
   4654000   9106.1634     -7492.13        1850.0384     -6143.7563      4363.2458      3076.4888      938.12139      1718.2069      10795.948     -1689.785       301.84324     -421.29585      140953.64      0.92024114    -7762.2768      2681.2315      42173.881    
   4656000   9181.7131     -7435.4119      1874.4647     -6143.1706      4349.7966      3064.7749      987.19588      1634.1188      10849.945     -1668.2317      303.35292      277.78058      141904.02      0.91407798    -7674.9115      2692.4583      42191.677    
   4658000   9169.2152     -7566.7743      1845.6649     -6144.644       4429.7733      3028.1973      975.04861      1689.8098      10912.139     -1742.9243      305.09181     -798.71502      140798.63      0.92125425    -7838.5687      2683.3578      42209.522    
   4660000   9069.7696     -7503.8502      1875.0016     -6144.265       4483.3175      3057.7905      948.51443      1684.1754      10669.086     -1599.3159      298.29628     -333.35805      141443         0.91705733    -7751.0643      2691.1523      42227.562    
   4662000   8697.4906     -7579.6272      1859.4623     -6144.7228      4274.2657      3021.6123      961.41002      1645.6228      10659.468     -1961.9769      298.02737     -614.11331      140800.64      0.92124111    -7838.0053      2681.4545      42245.444    
   4664000   9052.4666     -7478.7335      1863.1826     -6144.8466      4352.6109      3048.2674      939.53907      1681.6049      10790.842     -1738.3752      301.70046     -719.82072      141787.81      0.91482717    -7738.3981      2692.4232      42263.175    
   4666000   8947.6771     -7508.8703      1854.0342     -6145.2225      4297.9235      3004.7199      955.98633      1607.9986      10881.107     -1933.4302      304.22419     -1273.4421      140800.51      0.92124199    -7771.3503      2683.5753      42281.005    
   4668000   9107.6627     -7475.3082      1859.9855     -6144.646       4412.6578      3047.6671      957.30912      1691.0844      10758.913     -1651.2503      300.80776      7.2451394      141375.35      0.91749612    -7737.0441      2683.189       42299.107    
   4670000   9105.0777     -7580.6231      1843.7136     -6145.1946      4410.0496      3117.6877      977.76895      1701.0016      10780.674     -1675.5962      301.41618      189.34314      140691.38      0.92195655    -7852.6821      2681.6003      42317.146    
   4672000   8927.1601     -7515.5366      1892.1715     -6144.9494      4405.0189      3020.3742      944.60431      1724.7097      10600.768     -1673.6075      296.38619      29.463595      141454.89      0.91698026    -7744.162       2693.0841      42335.35     
   4674000   9063.4199     -7568.5054      1892.4564     -6144.7586      4417.844       3112.7925      947.03347      1664.7438      10741.814     -1678.3938      300.32968      303.06604      140804.86      0.92121346    -7793.1679      2691.996       42353.677    
   4676000   9120.4302     -7494.316       1859.5272     -6143.9667      4318.7585      3051.6742      966.92829      1698.902       10862.923     -1742.4925      303.71576     -372.69318      141116.81      0.91917711    -7749.3675      2695.9986      42371.808    
   4678000   9105.9689     -7457.1685      1851.9893     -6144.7133      4354.4649      3030.1773      894.48616      1701.7795      10874.954     -1768.9846      304.05213     -246.72739      141633.64      0.91582293    -7728.4881      2699.9865      42389.922    
   4680000   8892.1846     -7581.4628      1831.0371     -6143.3849      4347.4019      3044.6034      1047.2766      1651.3235      10695.39      -1803.2051      299.03172      169.26851      140499.73      0.92321411    -7865.8709      2690.2842      42408.057    
   4682000   8961.503      -7494.0903      1865.5758     -6144.177       4373.849       3011.3383      942.80244      1676.2866      10729.918     -1768.4151      299.9971       130.47407      140848.69      0.92092683    -7744.1475      2686.3762      42426.268    
   4684000   9069.4605     -7472.5235      1857.1343     -6145.8007      4366.6385      3120.1034      903.18908      1706.8931      10733.826     -1664.3658      300.10637     -783.17686      141835.37      0.91452036    -7736.0635      2703.4202      42444.349    
   4686000   9041.861      -7493.8099      1851.8842     -6144.3022      4434.7743      2998.6621      931.15127      1690.3664      10773.135     -1731.2739      301.20539     -775.29012      141393.53      0.91737818    -7756.8219      2696.7597      42462.531    
   4688000   8830.3167     -7564.6073      1834.2306     -6144.0132      4433.4337      2991.4627      964.66761      1620.4194      10694.723     -1864.4065      299.01308      651.9513       139867.3       0.92738859    -7844.9575      2678.6044      42480.75     
   4690000   9172.0924     -7525.8036      1880.1157     -6144.7757      4428.812       3084.7521      970.00418      1650.9023      10828.085     -1655.993       302.74175     -339.78115      140749.04      0.92157884    -7762.4503      2691.9668      42498.837    
   4692000   9207.3831     -7501.3023      1880.1296     -6144.1208      4468.514       3074.5172      958.69868      1693.1894      10777.757     -1570.3742      301.33463      184.47839      141174.89      0.91879891    -7738.2358      2697.5356      42516.836    
   4694000   8787.5445     -7610.9043      1860.8116     -6144.6884      4388.1276      2993.2586      926.89335      1698.8447      10675.201     -1887.6569      298.46728     -149.83163      140300.27      0.92452664    -7870.5658      2689.7088      42534.948    
   4696000   8705.6693     -7662.8443      1823.3219     -6145.218       4337.5373      3067.3841      941.07809      1691.8789      10652.531     -1946.862       297.83345     -385.71217      139608.23      0.92910952    -7958.4492      2686.8083      42553.229    
   4698000   9015.0991     -7584.5934      1847.4228     -6143.0819      4457.4311      3004.8994      959.20876      1680.522       10793.29      -1778.1912      301.76892      118.90385      140103.39      0.92582584    -7854.9991      2691.9233      42571.353    
   4700000   9015.7662     -7511.5039      1855.7804     -6145.9954      4358.0712      3023.6262      941.85571      1682.1003      10811.832     -1796.0656      302.28732      196.94476      141245.86      0.91833729    -7771.9747      2705.3775      42589.45     
   4702000   9225.1545     -7537.435       1877.4671     -6143.6197      4384.9307      3035.2661      938.61047      1735.8515      10934.083     -1708.9287      305.70534     -617.54894      140806.93      0.92119996    -7779.7617      2701.2401      42607.661    
   4704000   8928.6791     -7505.5943      1853.4907     -6144.6477      4335.5651      3044.3924      925.7673       1693.9303      10725.775     -1797.0963      299.88127     -66.495677      141626.8       0.9158672     -7766.8697      2711.0852      42625.965    
   4706000   8986.6723     -7535.9371      1831.3525     -6144.7252      4435.5872      3094.7453      933.9943       1662.7982      10708.857     -1722.1847      299.40825      242.50646      141196.31      0.91865954    -7818.3944      2712.186       42644.072    
   4708000   8792.3906     -7612.5877      1806.8117     -6144.8605      4313.7547      3061.6283      938.51649      1692.9711      10736.157     -1943.7659      300.17152      109.66066      139373.27      0.93067583    -7923.0102      2693.4423      42662.334    
   4710000   9026.6673     -7587.3218      1846.6317     -6143.2537      4438.2389      3027.1696      947.31525      1726.0076      10771.88      -1745.2123      301.17029     -65.985976      140784.56      0.92134632    -7854.5538      2709.692       42680.537    
   4712000   8847.4613     -7495.1858      1884.1736     -6144.162       4329.1286      3110.0646      942.89236      1670.3555      10550.194     -1702.7331      294.97221     -241.60184      141673.57      0.91556479    -7726.0061      2724.9543      42698.639    
   4714000   8820.8174     -7619.5527      1839.6859     -6144.9077      4394.7064      2982.1032      943.08708      1673.4325      10752.263     -1931.4454      300.62183     -248.68441      140033.8       0.92628592    -7892.8832      2707.3951      42716.739    
   4716000   8958.9714     -7578.2423      1847.9994     -6145.5062      4432.4177      3093.7097      975.57402      1671.1235      10661.896     -1702.9242      298.09526      24.600558      139845.08      0.92753591    -7842.9605      2704.6132      42735.097    
   4718000   8986.5291     -7546.7365      1873.2995     -6143.1472      4305.7         3135.3941      992.97933      1660.5524      10708.487     -1721.9583      299.39792      277.67851      140889.68      0.92065891    -7787.7183      2716.0962      42753.554    
   4720000   8820.1299     -7585.5414      1814.1979     -6146.2102      4368.3321      2997.9905      934.05778      1685.3772      10751.926     -1931.7962      300.61242      186.0302       139957.47      0.92679113    -7888.1394      2707.0183      42771.916    
   4722000   8833.948      -7582.0521      1843.0988     -6145.528       4327.5102      3036.353       940.72691      1658.903       10754.936     -1920.9882      300.69658      127.50129      140237.53      0.92494025    -7854.6057      2712.0556      42790.073    
   4724000   9049.1314     -7549.6504      1856.2192     -6142.0118      4451.1903      3083.1454      870.54541      1633.3417      10846.352     -1797.2203      303.25246     -772.3159       141067.98      0.91949522    -7809.9879      2719.7743      42808.21     
   4726000   8938.1033     -7547.5294      1870.3981     -6143.7199      4443.747       2986.7003      952.49443      1641.2867      10734.726     -1796.6228      300.13152      611.74349      141025.82      0.91977016    -7796.439       2721.3413      42826.368    
   4728000   8772.484      -7648.7209      1866.1131     -6145.3929      4381.3236      3053.1332      954.95344      1667.3011      10643.773     -1871.2893      297.58858      553.49412      139903.99      0.92714535    -7895.1136      2710.9209      42844.593    
   4730000   8923.093      -7539.6271      1876.5641     -6144.1824      4342.8397      3086.344       920.66685      1677.3872      10703.101     -1780.0077      299.24731     -211.39186      141332.01      0.91777751    -7785.3358      2726.2713      42862.8      
   4732000   8936.4235     -7581.7536      1870.5248     -6143.2096      4410.0187      3084.2166      945.694        1637.8896      10713.043     -1776.6196      299.52529     -410.18791      140354.69      0.92416817    -7831.419       2717.1169      42880.99     
   4734000   8909.6834     -7588.7514      1845.7228     -6144.7401      4307.3801      3034.6238      959.39347      1720.5331      10775.522     -1865.8383      301.27212     -468.45981      140402.39      0.9238542     -7858.9522      2722.5555      42899.164    
   4736000   8905.264      -7608.5996      1889.6683     -6143.1747      4298.5622      3123.7804      934.26877      1637.0755      10773.683     -1868.4191      301.22072      999.74417      140187.35      0.92527132    -7838.8496      2719.2716      42917.374    
   4738000   9021.4971     -7633.2917      1871.3259     -6144.2331      4494.4178      3004.5401      957.02677      1715.142       10756.569     -1735.0721      300.74223     -371.48743      140196.94      0.92520802    -7875.0544      2720.4772      42935.567    
   4740000   8927.7645     -7504.0226      1840.7021     -6143.9786      4329.9908      3073.7479      916.80462      1677.9857      10736.535     -1808.7702      300.18209      362.60579      141534.5       0.91646443    -7785.1072      2738.1792      42953.692    
   4742000   9050.5049     -7564.6087      1875.706      -6144.285       4460.9029      2976.1655      963.55805      1709.8422      10773.224     -1722.7189      301.20788     -390.273        140456.41      0.92349886    -7805.6378      2728.7229      42971.762    
   4744000   8853.6676     -7625.7904      1862.9429     -6144.5761      4354.468       2950.188       950.56006      1684.306       10821.569     -1967.9015      302.55956      484.18907      139920.71      0.92703458    -7875.8646      2720.5346      42989.893    
   4746000   9047.7968     -7576.1672      1858.3243     -6145.8293      4432.534       3046.8719      946.14355      1681.9413      10803.978     -1756.1815      302.06774      47.709882      140336.92      0.9242852     -7832.8532      2727.2457      43008.196    
   4748000   8918.3836     -7597.9379      1853.5879     -6143.1783      4376.9813      3048.6226      940.92929      1670.9644      10768.414     -1850.0307      301.07341     -278.58158      140300.8       0.92452315    -7862.3739      2730.5356      43026.376    
   4750000   8756.3299     -7623.6799      1832.8084     -6145.1569      4353.2415      3097.0073      918.03356      1641.4676      10682.608     -1926.2784      298.67436     -848.31064      139410.39      0.93042802    -7907.867       2719.201       43044.593    
   4752000   8780.8755     -7597.1707      1839.8047     -6144.4466      4265.8143      2998.5282      953.2981       1710.0568      10754.991     -1974.1151      300.6981      -216.64771      140416.16      0.92376363    -7870.6494      2731.7932      43062.534    
   4754000   8915.7043     -7577.5622      1866.9648     -6143.34        4432.6014      3065.659       924.41712      1691.474       10655.49      -1739.7859      297.91617     -1333.762       140671.53      0.92208663    -7828.5019      2741.8444      43080.69     
   4756000   8785.6693     -7545.4684      1861.7548     -6144.2229      4350.1129      3030.1638      907.68023      1674.0655      10651.583     -1865.9141      297.80694     -368.59857      141486.79      0.9167735     -7800.2173      2756.7845      43098.847    
   4758000   8872.0432     -7596.0981      1868.0363     -6144.8326      4296.9585      3041.4273      957.98401      1650.1588      10798.409     -1926.3657      301.91203     -1099.7226      140356.02      0.92415945    -7845.6374      2741.2761      43116.885    
   4760000   9048.9296     -7515.206       1871.2812     -6144.8986      4377.3575      3102.265       930.01577      1704.2963      10723.819     -1674.889       299.82656      961.138        141517.28      0.91657594    -7760.5481      2755.5756      43135.087    
   4762000   9159.8834     -7488.5327      1876.8359     -6144.845       4431.1087      3072.117       959.36498      1639.147       10814.687     -1654.8041      302.36716      85.977919      141815.15      0.91465078    -7728.1003      2765.1577      43153.237    
   4764000   8761.2237     -7600.81        1883.132      -6143.7135      4316.0016      2951.323       990.27613      1682.1101      10682.904     -1921.6807      298.68264      50.091997      140183.84      0.92529449    -7830.2514      2746.5295      43171.472    
   4766000   9053.4304     -7537.9813      1851.7687     -6144.4224      4437.4812      3105.9857      919.23108      1689.3996      10731.968     -1678.5374      300.0544       645.10399      140727.97      0.9217168     -7800.8789      2752.0977      43189.742    
   4768000   8882.6126     -7501.6141      1876.2167     -6144.0383      4279.8687      3012.0265      955.17085      1673.486       10731.496     -1848.8836      300.04122     -521.15917      141430.68      0.91713721    -7744.4177      2762.2309      43207.668    
   4770000   8924.7001     -7517.5114      1875.471      -6145.0891      4355.5816      3004.8301      931.85844      1696.7134      10722.846     -1798.146       299.79937      474.86031      140835.39      0.92101383    -7760.7571      2755.9743      43225.617    
   4772000   9015.9082     -7517.2688      1877.4213     -6143.9012      4348.9159      3017.9124      1000.8766      1698.8707      10733.081     -1717.1731      300.08554     -319.3881       141525.1       0.91652533    -7752.7864      2760.9867      43243.572    
   4774000   9064.9156     -7448.5459      1879.0626     -6142.6924      4340.8956      3033.8994      963.59397      1690.9742      10747.728     -1682.8125      300.49505      510.88679      142338.92      0.9112851     -7679.9485      2777.5433      43261.51     
   4776000   9035.9724     -7508.7697      1831.3622     -6143.9005      4407.2343      3026.0296      928.55857      1715.9013      10779.557     -1743.5842      301.38494     -305.89783      140772.69      0.92142402    -7795.0069      2759.7842      43279.5      
   4778000   8831.7526     -7521.8154      1858.8551     -6143.0623      4356.1438      2991.0126      931.93644      1741.2447      10617.438     -1785.6851      296.85226      231.77019      141592.72      0.91608765    -7777.3351      2770.6577      43297.527    
   4780000   8913.1188     -7439.9057      1869.4507     -6144.6289      4276.2314      3014.0088      942.89928      1713.8394      10681.224     -1768.1049      298.63565     -0.25504864     143028.67      0.90689048    -7687.2582      2786.3138      43315.706    
   4782000   9001.5369     -7575.9953      1844.5547     -6145.5053      4361.9786      3049.7162      918.37482      1681.7212      10866.692     -1865.1551      303.82115      1286.515       140535.22      0.92298101    -7847.2457      2758.6757      43333.907    
   4784000   8783.8842     -7583.1935      1857.438      -6145.3828      4285.9606      3026.221       946.78327      1650.4645      10745.593     -1961.7089      300.43535      857.81783      139746.5       0.92819027    -7842.034       2752.9695      43352.15     
   4786000   9033.6516     -7542.0431      1851.7799     -6143.3133      4426.3607      3032.6685      963.42176      1710.3462      10734.431     -1700.7794      300.12327     -238.80971      141089.2       0.91935693    -7802.3123      2770.8867      43370.374    
   4788000   8964.0986     -7528.1743      1890.8181     -6145.2153      4346.7462      3028.5808      928.94182      1710.5271      10731.874     -1767.7756      300.05179      142.33818      141372.23      0.91751637    -7758.2448      2775.1881      43388.534    
   4790000   9038.2193     -7497.0722      1864.6657     -6145.1514      4405.1106      3078.1734      970.06852      1635.6017      10726.823     -1688.6037      299.91056      309.42906      141938.87      0.91385354    -7750.1271      2781.7992      43406.697    
   4792000   9018.106      -7577.4505      1860.162      -6145.3031      4487.3896      3044.0978      956.14968      1665.7665      10727.294     -1709.1879      299.92373     -538.80365      140583.01      0.92266721    -7836.5427      2767.754       43424.941    
   4794000   8868.9196     -7562.7407      1869.8849     -6145.4711      4348.6398      3039.043       943.12702      1673.4045      10703.032     -1834.1125      299.24539     -566.89477      140637.65      0.92230877    -7807.646       2771.6918      43443.233    
   4796000   8960.9281     -7493.7327      1853.4434     -6142.4649      4450.8596      2983.4205      938.8777       1694.2796      10676.245     -1715.3169      298.49646     -29.313465      141097.74      0.91930128    -7754.7728      2778.9266      43461.384    
   4798000   8796.9662     -7532.6406      1837.0387     -6145.1383      4278.9221      3041.3001      952.2845       1644.8615      10720.338     -1923.372       299.72925      672.877        141075.57      0.91944579    -7813.6515      2783.3595      43479.555    
   4800000   9068.0274     -7572.9641      1853.8866     -6146.2011      4474.4883      3051.36        965.43865      1675.5904      10766.429     -1698.4013      301.0179      -301.58233      140426.75      0.92369395    -7830.9799      2775.4853      43497.651    
   4802000   8895.6837     -7418.8969      1837.3783     -6146.1775      4346.0967      2959.0118      941.84641      1707.2148      10669.21      -1773.5265      298.29977     -641.06695      142020.29      0.91332962    -7695.0452      2795.1264      43515.647    
   4804000   8816.3365     -7585.8552      1859.3628     -6144.353       4312.262       3015.5686      932.72842      1664.3028      10762.32      -1945.9836      300.90302     -58.95229       140248.36      0.92486882    -7847.5162      2774.6996      43533.655    
   4806000   8903.3697     -7582.9917      1852.5413     -6145.0734      4350.6511      3028.5156      950.91413      1684.3599      10764.453     -1861.0831      300.96265      13.366882      140160.31      0.92544984    -7845.6191      2772.337       43551.596    
   4808000   9089.9814     -7640.5877      1842.2477     -6144.7106      4466.0125      3097.8932      967.93368      1689.5063      10811.686     -1721.7049      302.28325     -941.62081      139198.39      0.93184509    -7918.8893      2765.6681      43569.76     
   4810000   8945.5706     -7531.0948      1871.3953     -6144.1464      4416.6367      3005.1674      963.0623       1684.2618      10680.288     -1734.7176      298.6095      -2.2131666      140958.81      0.92020736    -7776.0292      2783.6505      43587.724    
   4812000   8764.7812     -7568.3882      1858.5776     -6144.5442      4453.68        3006.7513      961.18767      1631.4976      10566.019     -1801.2382      295.41466      488.26541      140188.41      0.92526433    -7824.1093      2775.3361      43605.589    
   4814000   8919.7227     -7550.986       1849.8067     -6145.5083      4403.2807      2983.2446      939.52057      1686.2881      10754.076     -1834.3537      300.67254     -103.43963      140448.22      0.92355271    -7818.1547      2783.7         43623.566    
   4816000   8778.2691     -7559.1487      1880.7467     -6143.3979      4352.0817      3000.5586      919.69832      1670.4721      10657.258     -1878.9893      297.96561     -231.2976       140772.67      0.92142413    -7794.4733      2787.2889      43641.608    
   4818000   8992.2106     -7509.5228      1860.3598     -6144.2206      4416.9796      3041.316       954.29713      1737.7356      10635.266     -1643.0553      297.35072     -50.578522      140966.14      0.92015952    -7764.1052      2789.9359      43659.685    
   4820000   8829.1191     -7585.9381      1840.4698     -6144.4577      4378.5247      2974.0305      1008.5739      1699.8788      10658.037     -1828.9182      297.98738      507.59034      140178.9       0.92532713    -7858.9241      2782.8184      43677.717    
   4822000   8886.4798     -7561.2349      1874.6764     -6143.8591      4395.778       3005.4867      990.10234      1619.8341      10705.696     -1819.2165      299.31988      186.52247      141029.67      0.919745      -7804.325       2798.9524      43695.856    
   4824000   8901.2702     -7467.4555      1874.3866     -6143.4838      4280.4788      3004.0307      964.5172       1689.3341      10699.462     -1798.1918      299.14558      106.61674      141806.82      0.91470454    -7707.0122      2811.6358      43713.897    
   4826000   8870.4437     -7529.6148      1858.3409     -6144.66        4405.8096      3017.5234      923.95541      1657.7989      10681.29      -1810.8466      298.63751      501.01804      141227.06      0.91845949    -7787.6795      2808.9844      43731.788    
   4828000   9241.7794     -7488.7548      1849.3833     -6143.6201      4419.73        3110.2285      969.50204      1707.6701      10817.64      -1575.8609      302.44972     -542.49165      141538.93      0.91643574    -7749.5214      2814.3992      43749.665    
   4830000   8916.2476     -7490.3939      1865.0941     -6144.0126      4365.096       3073.821       897.85694      1651.9761      10696.81      -1780.5624      299.07143     -175.87199      141288.69      0.91805888    -7742.5944      2815.9839      43767.604    
   4832000   8976.3934     -7535.4028      1871.3079     -6146.2863      4253.5087      3072.0156      953.76926      1714.1981      10793.283     -1816.8895      301.76871     -147.51146      140786.92      0.92133085    -7785.1436      2815.6482      43785.444    
   4834000   9187.901      -7437.4276      1865.3195     -6143.4224      4485.8853      3033.3418      967.9138       1624.5975      10791.693     -1603.7922      301.72426     -703.73043      142300.69      0.91152995    -7687.4527      2835.0939      43803.47     
   4836000   8910.2191     -7521.7037      1870.5648     -6145.5022      4427.3429      3024.215       919.47212      1648.1041      10687.726     -1777.5068      298.81745     -846.5493       141065.35      0.91951241    -7770.3981      2828.5169      43821.393    
   4838000   8964.9593     -7557.0291      1859.728      -6143.8808      4398.0034      3030.4103      970.09296      1730.1617      10677.473     -1712.5135      298.53078     -223.78516      140823.14      0.92109392    -7812.2388      2824.996       43839.362    
   4840000   8991.4072     -7548.0779      1847.7365     -6143.3425      4376.6492      3026.5609      960.88882      1615.4955      10855.497     -1864.0895      303.50814      538.11511      140342.55      0.92424811    -7818.0088      2824.6194      43857.495    
   4842000   8815.8744     -7529.624       1844.1244     -6144.8612      4372.0003      3065.1274      945.48011      1672.2691      10591.358     -1775.4838      296.12311     -210.0598       140960.2       0.92019829    -7807.4207      2828.0997      43875.656    
   4844000   8912.8884     -7557.5037      1871.316      -6144.6901      4280.609       3060.1768      988.66545      1698.0015      10716.314     -1803.4253      299.61673     -102.98508      140376.08      0.92402732    -7797.5867      2818.7327      43893.947    
   4846000   9052.7545     -7588.4499      1888.7568     -6145.7843      4414.4469      3032.171       940.58172      1718.7613      10792.271     -1739.5166      301.74042     -973.07163      140547.48      0.9229005     -7820.1358      2824.6498      43912.17     
   4848000   9122.5028     -7518.2729      1870.3568     -6145.3985      4381.6944      3125.1934      954.20391      1651.4494      10803.276     -1680.7735      302.04812      639.72068      141167.19      0.91884904    -7764.8264      2829.8734      43930.334    
   4850000   9019.0252     -7480.5719      1894.4345     -6145.0809      4304.9843      3017.0053      940.48719      1715.4164      10772.35      -1753.3252      301.18346     -511.30221      141690.06      0.91545825    -7704.0511      2841.4042      43948.588    
   4852000   9032.7173     -7518.7238      1864.694      -6146.8021      4405.9274      3010.7604      944.15454      1651.9026      10820.804     -1788.0868      302.53817      146.41365      140748.18      0.92158446    -7770.5526      2828.1169      43966.658    
   4854000   8945.2787     -7607.3235      1830.6692     -6146.4055      4410.3285      3017.5333      975.67282      1690.4242      10774.38      -1829.1009      301.24019      91.99191       139599.03      0.92917074    -7890.0282      2815.5272      43984.884    
   4856000   8963.1042     -7512.0347      1852.2964     -6145.1112      4388.2008      3051.6202      981.65062      1631.0468      10715.435     -1752.3312      299.59217      469.48711      141195.84      0.91866263    -7778.7492      2840.3375      44003.057    
   4858000   8927.2921     -7511.3801      1842.6979     -6144.311       4269.7372      3103.024       906.29662      1693.0401      10768.188     -1840.8954      301.06707      114.56158      141105.71      0.91924936    -7788.1678      2842.6866      44021.137    
   4860000   8859.7441     -7569.9735      1836.2408     -6144.5145      4337.906       3016.6403      941.08267      1707.0131      10735.349     -1875.6052      300.14895      336.83434      139718.38      0.92837707    -7849.9763      2831.0787      44039.395    
   4862000   9050.4332     -7538.5471      1886.7029     -6144.4124      4397.5644      3052.2352      996.46221      1683.816       10716.612     -1666.179       299.62508      115.72369      141173.65      0.91880698    -7766.8692      2849.0337      44057.541    
   4864000   9088.6779     -7489.829       1860.4312     -6144.8447      4508.8703      3022.4877      940.48642      1623.1598      10767.916     -1679.2382      301.05948      342.39133      140574.82      0.92272098    -7748.8463      2840.2624      44075.687    
   4866000   8835.2756     -7579.4092      1884.0172     -6143.5616      4307.0178      2967.9788      965.11231      1650.695       10783.425     -1948.1497      301.4931      -267.2751       140600.43      0.92255289    -7814.3558      2841.7336      44093.723    
   4868000   9180.9235     -7511.9334      1905.2545     -6143.9543      4431.207       3077.0661      920.58336      1698.2075      10804.493     -1623.5693      302.08213     -489.16392      141366.6       0.91755291    -7725.3189      2849.0186      44112.015    
   4870000   8908.3064     -7554.5436      1861.1093     -6143.4844      4389.6386      3065.0715      939.32605      1667.3009      10683.888     -1775.5816      298.71014      5.3625937      140877.43      0.92073897    -7804.727       2847.9815      44130.091    
   4872000   8975.364      -7573.5398      1887.491      -6143.8236      4421.1354      3007.1281      983.40136      1690.532       10703.04      -1727.6755      299.2456      -460.31553      140278.48      0.92467027    -7801.4656      2843.8669      44148.237    
   4874000   9126.4186     -7562.4986      1877.5145     -6144.9105      4459.1034      3052.9935      934.00145      1654.655       10855.56      -1729.1413      303.50991     -196.25367      141246.1       0.91833573    -7799.0203      2855.1394      44166.287    
   4876000   9160.6234     -7425.9795      1888.4264     -6144.7586      4342.1168      3043.0402      961.86834      1722.0893      10773.82      -1613.197       301.22456      700.0785       142070.63      0.91300601    -7653.3374      2867.2564      44184.252    
   4878000   8948.621      -7563.1254      1874.9874     -6143.1643      4361.0724      3054.5946      946.84146      1696.0136      10721.401     -1772.7801      299.75897     -216.89996      140260.59      0.92478821    -7802.6391      2841.8648      44202.283    
   4880000   9096.6218     -7538.7578      1861.2762     -6144.4087      4406.3758      3068.2496      950.33371      1688.3461      10805.207     -1708.5852      302.10209     -265.47751      141055.58      0.9195761     -7797.4658      2850.9936      44220.538    
   4882000   9072.8491     -7530.835       1849.9609     -6145.0741      4343.8268      3052.6097      966.12137      1715.29        10820.949     -1748.1002      302.54223     -28.472193      140748.89      0.9215798     -7794.8523      2845.408       44238.908    
   4884000   8852.3317     -7631.4988      1826.3086     -6145.4679      4343.7011      3120.6952      965.57586      1678.4644      10694.553     -1842.2215      299.00833     -226.16776      140188.05      0.92526674    -7924.2181      2838.1179      44257.134    
   4886000   9031.5161     -7515.4695      1851.4914     -6145.9771      4383.6694      3002.6855      929.4772       1680.2134      10845.426     -1813.9098      303.22657      184.34004      140897.39      0.92060853    -7783.0106      2848.824       44275.299    
   4888000   9012.2452     -7525.2657      1843.0461     -6145.9929      4339.2205      3005.9308      973.78181      1728.392       10793.133     -1780.8874      301.76451      596.72691      140684.19      0.92200368    -7800.9772      2850.9326      44293.64     
   4890000   8945.1095     -7555.0119      1852.7656     -6145.0778      4295.6245      3076.0786      974.76767      1703.5512      10742.412     -1797.3021      300.3464       484.44245      140667.63      0.92211217    -7820.3679      2850.7428      44311.979    
   4892000   8907.1646     -7546.6724      1859.7367     -6143.8901      4353.8794      3085.1904      925.3847       1638.6687      10734.867     -1827.7026      300.13547     -691.865        141301.03      0.91797868    -7809.8239      2860.6503      44330.232    
   4894000   9217.1818     -7522.4426      1868.1792     -6144.9417      4435.2319      3065.39        949.87844      1637.3798      10928.507     -1711.3249      305.54942      135.03843      141093.84      0.9193267     -7773.4548      2857.7986      44348.482    
   4896000   9181.3838     -7472.1345      1891.7356     -6143.1029      4340.3142      3034.1356      975.45482      1694.1942      10860.787     -1679.403       303.65605      496.01298      142593.12      0.90966057    -7695.5279      2880.5721      44366.691    
   4898000   8999.0441     -7468.4415      1891.5482     -6143.324       4429.842       3052.0415      988.6907       1661.8126      10586.875     -1587.8305      295.99775     -147.92585      141991.76      0.91351315    -7694.7951      2874.811       44384.837    
   4900000   9131.2978     -7458.4068      1855.2528     -6145.0244      4454.5738      3032.1329      930.0148       1619.8913      10842.863     -1711.5657      303.15493      177.14596      142320.02      0.91140612    -7721.1902      2882.0668      44402.965    
   4902000   8960.7038     -7538.9533      1857.1873     -6143.1372      4364.7188      3060.171       963.33041      1690.6945      10706.692     -1745.9885      299.34773     -423.65203      140612.07      0.92247654    -7797.8273      2859.9657      44420.938    
   4904000   9108.2158     -7502.5053      1850.5655     -6144.7719      4461.081       3029.4196      940.49425      1709.2686      10764.664     -1656.4484      300.96856     -420.02496      141597.54      0.91605645    -7765.0545      2874.6786      44438.719    
   4906000   8976.376      -7560.1397      1858.6718     -6143.0098      4481.564       3047.8028      934.07151      1665.1534      10692.262     -1715.8861      298.94428      1.9357766      140914.44      0.9204971     -7818.5545      2864.3908      44456.411    
   4908000   8927.8708     -7539.8016      1841.9595     -6144.1202      4269.4823      3118.4889      943.43727      1690.3364      10748.088     -1820.2174      300.50511     -344.27585      140492.73      0.92326011    -7815.4755      2865.4298      44474.299    
   4910000   9051.4407     -7539.2024      1850.0639     -6142.8681      4444.6411      3095.6523      957.2532       1659.2609      10726.64      -1675.1992      299.90544     -83.963792      141038.52      0.91968731    -7806.918       2868.9398      44491.936    
   4912000   8937.4166     -7570.9783      1873.1725     -6143.8113      4370.6152      3032.987       967.08971      1717.0047      10691.337     -1753.9205      298.91841      958.0007       141430.45      0.91713872    -7810.5756      2874.849       44509.722    
   4914000   8956.795      -7595.9965      1843.7586     -6142.9117      4313.0996      3065.5607      938.10304      1703.551       10831.63      -1874.8353      302.84086      482.99813      139812.36      0.92775304    -7869.4386      2857.9814      44527.916    
   4916000   8945.3984     -7525.0752      1837.4043     -6145.5025      4434.2834      3130.3677      945.06915      1696.7084      10572.143     -1626.7449      295.58588      690.02331      140785.06      0.92134304    -7804.5772      2868.1494      44546.149    
   4918000   8961.9172     -7555.3315      1841.1923     -6144.4385      4423.3388      2989.5773      972.70691      1713.1277      10721.744     -1759.8269      299.76856      53.727852      140742.38      0.92162247    -7827.0764      2871.8494      44564.433    
   4920000   9176.93       -7598.6561      1873.645      -6144.2195      4453.7935      3049.4706      939.37826      1726.9184      10876.6       -1699.67        304.09817      75.382538      140685.78      0.92199321    -7841.6901      2873.0606      44582.494    
   4922000   9102.8156     -7542.1305      1871.3202     -6143.4777      4431.2511      2964.2239      931.66643      1701.804       10888.158     -1785.3425      304.42132      704.38551      141090.91      0.91934584    -7787.025       2880.582       44600.585    
   4924000   8769.858      -7617.8948      1821.5267     -6145.7622      4392.6909      3020.4659      943.01689      1627.7797      10728.035     -1958.1769      299.94444      31.839553      139600.01      0.92916425    -7917.7203      2862.7829      44618.716    
   4926000   8854.5415     -7624.0673      1865.8634     -6143.6982      4390.5896      3032.3931      954.59641      1711.0666      10667.798     -1813.2564      298.26028      657.07485      139920.69      0.9270347     -7876.2261      2866.1935      44636.808    
   4928000   8865.653      -7580.6411      1848.2777     -6144.8066      4352.7587      3006.0093      908.35492      1665.2821      10810.418     -1944.765       302.24779     -22.911784      140422.06      0.9237248     -7848.5609      2874.1141      44654.856    
   4930000   8730.4306     -7551.5595      1864.7162     -6144.1305      4281.8814      2972.1233      901.3131       1711.0603      10695.026     -1964.5958      299.02156      301.91687      141237.02      0.91839472    -7800.2921      2882.9859      44673.076    
   4932000   9160.42       -7537.9168      1885.5273     -6143.9753      4427.276       3121.2514      955.41158      1658.4582      10794.388     -1633.9676      301.7996      -542.29936      140756.86      0.92152763    -7765.9706      2878.1335      44691.499    
   4934000   8884.4549     -7554.8344      1834.8182     -6145.6198      4355.5711      3015.8997      970.51576      1648.2465      10759.858     -1875.4029      300.83418      294.72694      139838.16      0.92758185    -7834.2418      2872.0921      44709.808    
   4936000   8930.3118     -7472.9411      1851.3523     -6144.2574      4356.6258      2966.8191      961.52356      1671.9834      10739.206     -1808.8944      300.25678     -110.54315      141441.36      0.91706793    -7735.4258      2891.0564      44728.176    
   4938000   9029.1381     -7452.4834      1867.8461     -6144.6214      4345.0404      3080.31        951.76173      1671.0589      10710.226     -1681.0877      299.44652     -221.95881      141855.78      0.91438881    -7703.3359      2899.9916      44746.413    
   4940000   9029.3525     -7556.8041      1823.9204     -6145.9094      4313.522       3041.7429      955.91917      1707.7242      10889.237     -1859.8849      304.45149      1109.3961      140357.44      0.92415008    -7848.3685      2877.3235      44764.628    
   4942000   8804.3176     -7531.5186      1860.38       -6144.8211      4319.1414      3041.6293      939.03301      1677.6547      10642.819     -1838.5013      297.5619       38.093804      140785.63      0.9213393     -7790.1233      2881.4312      44782.842    
   4944000   9000.5062     -7436.1975      1868.1703     -6145.3648      4322.604       3054.0002      927.70159      1660.0771      10749.515     -1749.0092      300.54502      103.58574      142195.96      0.91220129    -7687.7932      2896.7013      44801.006    
   4946000   8883.2476     -7590.1024      1852.8207     -6145.8479      4435.8237      3080.6162      942.03136      1652.7311      10655.175     -1771.9272      297.90736     -138.9644       140227.57      0.92500595    -7856.2978      2868.4177      44819.251    
   4948000   9013.8266     -7497.8966      1876.9452     -6144.935       4338.0694      3111.6526      957.5881       1644.8542      10727.549     -1713.722       299.93085     -1014.7899      141807.6       0.91469945    -7738.9417      2895.2612      44837.456    
   4950000   8870.272      -7510.5401      1885.5917     -6142.5057      4402.5064      3102.5137      933.49572      1665.204       10534.006     -1663.7342      294.51961     -612.86473      140725.94      0.92173012    -7742.1295      2881.748       44855.596    
   4952000   8998.8844     -7506.8864      1839.3343     -6143.6481      4410.6548      3058.5515      948.17344      1644.3654      10748.34      -1749.4551      300.51214     -52.5005        140765.6       0.92147041    -7778.7137      2885.9129      44873.758    
   4954000   8699.3377     -7671.1672      1840.7515     -6144.3794      4357.6455      3086.0331      895.30848      1713.5042      10621.642     -1922.3038      296.9698       131.97136      139335.29      0.93092952    -7949.2079      2864.5557      44891.868    
   4956000   9278.4085     -7549.8762      1846.3291     -6144.4491      4448.5656      3047.7825      981.51086      1696.3456      10952.2       -1673.7917      306.21187     -431.94202      140730.23      0.92170202    -7816.713       2886.7723      44909.833    
   4958000   9090.8624     -7550.4133      1854.6275     -6144.0491      4454.5917      3031.2117      968.51115      1716.3708      10760.012     -1669.1496      300.83849      392.69676      140116.08      0.92574201    -7810.4836      2880.7478      44927.929    
   4960000   9134.2543     -7525.0734      1856.71       -6142.8083      4369.1287      3112.0606      945.8891       1687.3241      10831.023     -1696.7692      302.8239       814.78927      141083.95      0.91939117    -7779.7391      2889.4197      44945.975    
   4962000   8906.7615     -7544.6585      1825.8776     -6145.0631      4405.5135      3042.6378      937.38708      1667.4267      10717.64      -1810.8788      299.65382     -806.29101      140826.74      0.92107038    -7837.865       2888.581       44964.017    
   4964000   9076.9021     -7532.2365      1827.9449     -6147.1236      4323.783       3040.6085      973.88944      1718.0907      10871.946     -1795.0437      303.96804     -292.37989      140366.74      0.92408887    -7822.5911      2887.5765      44982.212    
   4966000   8964.8147     -7519.2962      1857.2472     -6145.346       4426.0118      3047.987       941.21779      1679.9873      10677.006     -1712.1911      298.51773     -414.88847      141048.73      0.91962077    -7783.1409      2889.577       45000.344    
   4968000   8732.7179     -7584.4205      1839.6784     -6144.9214      4287.6204      3047.5926      952.43317      1654.3878      10680.347     -1947.6295      298.61115      81.428342      140278.62      0.92466933    -7860.249       2882.8885      45018.445    
   4970000   8950.388      -7487.8424      1853.4429     -6145.7568      4484.8618      3135.6514      930.20311      1727.8157      10452.012     -1501.6242      292.22714     -14.591977      141352.38      0.91764523    -7750.5437      2898.9086      45036.512    
   4972000   9268.3748     -7552.6848      1837.4687     -6144.3197      4516.9176      3157.4709      912.47038      1731.9305      10809.121     -1540.7465      302.21153      85.68086       140914.5       0.92049675    -7833.9043      2888.3032      45054.539    
   4974000   8740.174      -7599.0188      1857.4379     -6145.0163      4401.9537      2962.0421      969.71905      1664.9362      10628.12      -1887.9462      297.15094      15.31154       140996.08      0.91996417    -7856.4932      2888.7588      45072.445    
   4976000   8929.5391     -7592.7463      1843.0704     -6144.3084      4371.0231      3051.4071      919.90669      1638.6936      10842.493     -1912.9538      303.14457      124.19668      140096.68      0.92587017    -7862.8618      2876.3774      45090.273    
   4978000   8985.1645     -7492.763       1812.8407     -6146.1326      4413.8136      3114.696       935.15419      1733.1242      10614.431     -1629.2668      296.76821      493.1016       141195.87      0.91866238    -7796.4397      2890.4653      45108.141    
   4980000   8910.5017     -7458.2399      1861.6377     -6145.2208      4364.3443      2951.6773      973.37414      1709.8445      10653.085     -1742.5829      297.84891     -446.70923      141830         0.914555      -7713.8664      2898.6336      45126.072    
   4982000   9096.934      -7572.1109      1862.8095     -6143.0805      4381.0007      3138.6195      936.00794      1646.9377      10846.75      -1749.816       303.26359     -89.234143      140576.06      0.92271285    -7827.2986      2879.9003      45144.199    
   4984000   8913.6301     -7529.3385      1846.0548     -6144.7836      4333.0952      3041.8148      954.44598      1700.257       10712.084     -1798.4544      299.49849     -9.5119104      141340.6       0.91772174    -7798.4725      2896.1625      45162.129    
   4986000   8912.4738     -7568.1952      1867.4868     -6144.7321      4451.6811      3001.1204      941.56184      1668.5235      10695.027     -1782.5535      299.02159     -2.9484119      140395.68      0.92389838    -7813.8964      2881.5923      45180.156    
   4988000   8899.3262     -7574.441       1827.6972     -6145.3684      4355.367       3048.5395      994.06581      1677.4956      10715.97      -1816.6443      299.60714     -293.38522      141013.02      0.9198536     -7861.9173      2890.0445      45198.275    
   4990000   8702.4585     -7605.7301      1840.938      -6145.0804      4305.6777      2987.0432      915.2903       1682.8766      10721.443     -2018.9847      299.76015      377.65087      139800.66      0.92783067    -7880.7617      2877.7749      45216.574    
   4992000   9045.6745     -7578.1902      1845.1708     -6144.7643      4430.7974      3082.4835      961.4982       1695.6365      10753.043     -1707.3682      300.64364     -554.84402      140251.61      0.92484739    -7853.1116      2883.3815      45235.018    
   4994000   8993.0067     -7553.7968      1859.1833     -6144.0805      4376.6361      3106.3594      909.62792      1668.2086      10770.869     -1777.862       301.14203      403.82095      140671.2       0.92208881    -7817.4217      2890.2968      45253.387    
   4996000   9113.4798     -7558.6263      1847.4429     -6145.148       4434.2576      3020.1487      964.17899      1656.5191      10894.707     -1781.227       304.60442      277.44326      140067.64      0.92606216    -7828.8809      2884.4445      45271.676    
   4998000   8898.499      -7560.4656      1885.3218     -6146.2041      4425.4089      3062.5802      950.27657      1686.0269      10595.554     -1697.0553      296.24043     -120.5924       140602.44      0.92253973    -7790.2399      2897.6624      45289.932    
   5000000   9148.0006     -7537.5204      1879.9859     -6144.3453      4407.8233      3105.6442      961.9387       1660.9696      10813.505     -1665.5041      302.33409      7.6712947      140938.26      0.92034158    -7775.0801      2898.8766      45308.049    
Loop time of 45308 on 27 procs for 5000000 steps with 12000 atoms

Performance: 19.069 ns/day, 1.259 hours/ns, 110.356 timesteps/s
91.3% CPU use with 27 MPI tasks x no OpenMP threads

MPI task timing breakdown:
Section |  min time  |  avg time  |  max time  |%varavg| %total
---------------------------------------------------------------
Pair    | 25050      | 25847      | 26786      | 315.8 | 57.05
Bond    | 1001.2     | 1010       | 1019.7     |  13.3 |  2.23
Kspace  | 3804.7     | 4526.1     | 5303.7     | 597.0 |  9.99
Neigh   | 1188.3     | 1204.2     | 1235.7     |  37.3 |  2.66
Comm    | 9898.9     | 10489      | 10965      | 328.7 | 23.15
Output  | 25.888     | 25.923     | 26.067     |   0.6 |  0.06
Modify  | 431.1      | 618.42     | 949.21     | 792.2 |  1.36
Other   |            | 1587       |            |       |  3.50

Nlocal:        444.444 ave         464 max         427 min
Histogram: 2 4 1 3 5 4 1 4 1 2
Nghost:        9775.52 ave        9820 max        9732 min
Histogram: 3 1 4 6 1 2 2 2 1 5
Neighs:         324514 ave      340512 max      303844 min
Histogram: 2 0 1 3 3 5 4 5 2 2

Total # of neighbors = 8761873
Ave neighs/atom = 730.15608
Ave special neighs/atom = 8.5
Neighbor list builds = 84866
Dangerous builds = 0
unfix NPH
unfix TEMP

# Save the current status (multiple choices).
write_data      ${run}.last.data
write_data      benzene_02.last.data
System init for write_data ...
PPPM initialization ...
  using 12-bit tables for long-range coulomb (../kspace.cpp:342)
  G vector (1/distance) = 0.17234829
  grid = 12 12 12
  stencil order = 5
  estimated absolute RMS force accuracy = 0.017432373
  estimated relative force accuracy = 5.2497075e-05
  using double precision KISS FFT
  3d grid and FFT values/proc = 729 96
Generated 0 of 2415 mixed pair_coeff terms from geometric mixing rule
WARNING: Not all mixed pair coeffs generated from mixing. Use write_data with 'pair ij' option to store all pair coeffs. (../write_data.cpp:309)
write_restart   ${run}.last.restart
write_restart   benzene_02.last.restart
System init for write_restart ...
PPPM initialization ...
  using 12-bit tables for long-range coulomb (../kspace.cpp:342)
  G vector (1/distance) = 0.17234829
  grid = 12 12 12
  stencil order = 5
  estimated absolute RMS force accuracy = 0.017432373
  estimated relative force accuracy = 5.2497075e-05
  using double precision KISS FFT
  3d grid and FFT values/proc = 729 96
Generated 0 of 2415 mixed pair_coeff terms from geometric mixing rule
Total wall time: 12:35:08
